98
Lutein source point 4; BLA = -0.0240727937 Angstrom
C 12.63822800 -0.50292700 0.72738600
C 13.93754000 0.12110700 0.33615200
C 13.87344300 1.55335800 0.04184800
C 12.82031900 1.89457600 -0.92037700
C 11.63117600 1.07587800 -0.90595800
C 11.53585300 -0.06661300 -0.17028000
C 10.39591000 -0.84919500 -0.17811700
C 9.09716100 -0.49440200 -0.12344300
C 7.96222800 -1.25876500 -0.20001100
C 6.70420600 -0.68526900 -0.10143100
C 5.47743400 -1.21296100 -0.16005700
C 4.25631800 -0.59830900 -0.05817400
C 3.00688900 -1.11978400 -0.11655000
C 1.87583200 -0.30333600 0.01309400
C 0.58361500 -0.57813300 -0.01052800
C 12.27906400 -0.08675800 2.10957800
C 12.81337500 -1.97859700 0.70177300
C 10.55623600 1.54744600 -1.73478600
C 8.10506400 -2.67745000 -0.39457400
C 2.84818800 -2.53638000 -0.31552600
O 15.13334900 2.07770600 -0.46620000
C -12.12064200 -0.17972700 -1.19846900
C -13.40335800 -0.94565300 -1.21018400
C -14.34457800 -0.56693900 -0.14717000
C -13.71071500 -0.31541900 1.11909100
C -12.41284800 -0.12665500 1.29245100
C -11.48341500 -0.28007300 0.17026800
C -10.31028900 0.54513000 0.27697600
C -9.02323600 0.19081400 0.21161700
C -7.88281100 0.95352100 0.30771200
C -6.62663700 0.37917900 0.21097000
C -5.40003100 0.90589100 0.27135600
C -4.17855600 0.29125800 0.16932500
C -2.92849800 0.81320800 0.22882700
C -1.79859100 -0.00193700 0.09950300
C -0.50521800 0.27359700 0.12353500
C -12.39096700 1.24377000 -1.51491900
C -11.20221400 -0.74042400 -2.21858100
C -11.82167900 0.20422600 2.55687400
C -8.03096700 2.36918800 0.51243900
C -2.77146400 2.23006200 0.42861500
O -15.41136800 -1.54172300 0.03050600
H 14.33896300 -0.37036100 -0.54408000
H 14.68738000 -0.04928100 1.09987500
H 13.69479300 2.09189300 0.96794100
H 13.25172900 1.85072300 -1.91851900
H 12.55456000 2.93847500 -0.78506800
H 10.57221900 -1.89085300 -0.29487400
H 8.93372900 0.54770900 0.02173900
H 6.71108700 0.37051200 0.04725400
H 5.42660100 -2.26565500 -0.30786100
H 4.31946000 0.45413700 0.08972900
H 2.10192500 0.72864500 0.15701000
H 0.30696200 -1.59597700 -0.15196600
H 11.34723800 -0.51602200 2.44026000
H 12.16857200 0.98055000 2.20521100
H 13.01957000 -0.38062100 2.83464000
H 13.69245300 -2.29543500 1.24074400
H 12.91963200 -2.36256100 -0.29844200
H 11.99656300 -2.51515500 1.15512400
H 9.89090500 2.18342500 -1.17143300
H 9.95312100 0.76280900 -2.16604400
H 10.88698600 2.13592300 -2.57841500
H 7.18624800 -3.23971300 -0.42725700
H 8.68794300 -3.13007100 0.39442300
H 8.61101300 -2.89987600 -1.32264600
H 1.83224700 -2.89379800 -0.35194500
H 3.32190400 -3.10289400 0.47297000
H 3.29776600 -2.85889200 -1.24338500
H 15.77537400 1.88278200 0.21584800
H -13.20219700 -2.00650600 -1.10978300
H -13.89246100 -0.85750100 -2.17209900
H -14.84506300 0.35882900 -0.42836700
H -14.38568000 -0.28559900 1.93363600
H -11.17869600 -1.32613400 0.29169000
H -10.53279000 1.57194300 0.42044800
H -8.86353900 -0.85176800 0.06168800
H -6.63477500 -0.67642200 0.06081000
H -5.34927600 1.95848300 0.42063800
H -4.24139100 -0.76090300 0.02023500
H -2.02332100 -1.03420500 -0.04479200
H -0.22932200 1.29147000 0.26521400
H -12.95879300 1.36648800 -2.42286400
H -11.49407300 1.82492700 -1.65373300
H -12.95291900 1.73381300 -0.73671700
H -10.24502800 -0.24412700 -2.22723400
H -11.59668500 -0.65811500 -3.21759000
H -10.99551900 -1.78585300 -2.06152500
H -12.47866200 0.07320200 3.40280900
H -11.50981700 1.23805900 2.57983800
H -10.94698600 -0.39074400 2.77111300
H -8.56642300 2.58277300 1.42622000
H -8.59000200 2.82889100 -0.28975900
H -7.11336100 2.93019700 0.58022000
H -1.75577500 2.58812900 0.46660500
H -3.22236700 2.55194400 1.35602600
H -3.24430500 2.79657000 -0.36037400
H -15.81806700 -1.61564300 -0.83274800
