98
Lutein source point 9; BLA = 0.0259265505 Angstrom
C 12.62579200 -0.49835800 0.74931600
C 13.94076300 0.10956600 0.38482300
C 13.89708300 1.53886400 0.07170400
C 12.86875700 1.87984600 -0.91742700
C 11.67022600 1.07217200 -0.91586500
C 11.55276900 -0.05491000 -0.17861500
C 10.39481800 -0.83508300 -0.20093500
C 9.11472800 -0.47198700 -0.14182200
C 7.95543400 -1.23484500 -0.22118100
C 6.72366800 -0.65969200 -0.12268700
C 5.46921200 -1.18837600 -0.17831500
C 4.27778600 -0.57830300 -0.07737500
C 2.99424500 -1.10185000 -0.13229900
C 1.89633700 -0.29797500 -0.00534200
C 0.57019600 -0.57399300 -0.02549500
C 12.23829500 -0.06901500 2.11968400
C 12.78347000 -1.97597600 0.73680200
C 10.61310300 1.55292300 -1.76415900
C 8.10795400 -2.65317700 -0.41739700
C 2.86172300 -2.52183500 -0.32803600
O 15.17312500 2.04472400 -0.41417900
C -12.14177600 -0.17448000 -1.18747500
C -13.43470300 -0.92334200 -1.18960800
C -14.36140700 -0.53438100 -0.11757700
C -13.71308200 -0.29396700 1.14353300
C -12.41124200 -0.12363300 1.30589200
C -11.49409600 -0.28695600 0.17512500
C -10.30750800 0.52255600 0.27420200
C -9.03596800 0.15942900 0.20675700
C -7.87314200 0.92089500 0.29788400
C -6.64192900 0.34490000 0.20079900
C -5.38844500 0.87257900 0.25711900
C -4.19594800 0.26226600 0.15582000
C -2.91268000 0.78604700 0.21125700
C -1.81551100 -0.01686300 0.08456700
C -0.48827800 0.25997200 0.10499700
C -12.39639100 1.25310900 -1.49851200
C -11.24014300 -0.74481100 -2.21719400
C -11.80458600 0.19546000 2.56600200
C -8.02899900 2.33750600 0.49860800
C -2.78093700 2.20639500 0.40714400
O -15.43935900 -1.49539400 0.06765400
H 14.36024000 -0.39566300 -0.47903600
H 14.66903200 -0.05850100 1.16954900
H 13.70311700 2.08997800 0.98727100
H 13.31935100 1.81747400 -1.90582800
H 12.61252900 2.92821800 -0.80100700
H 10.57456400 -1.87309000 -0.34321200
H 8.95333600 0.56989700 0.00703900
H 6.72476800 0.39611500 0.02412000
H 5.42993900 -2.24207700 -0.32365400
H 4.32976900 0.47498800 0.06777000
H 2.10776500 0.73741400 0.13573200
H 0.31165900 -1.59712800 -0.16422400
H 11.29234200 -0.48291100 2.42921500
H 12.14100400 1.00033800 2.20649400
H 12.95611500 -0.36913300 2.86471300
H 13.64364300 -2.29982100 1.30146600
H 12.91245000 -2.36746900 -0.25782100
H 11.94778100 -2.49964500 1.17048100
H 9.95137000 2.20437600 -1.21456200
H 10.00203600 0.77397600 -2.19435700
H 10.96424300 2.12693200 -2.60927100
H 7.19153800 -3.21897900 -0.45853200
H 8.68630100 -3.10359800 0.37589200
H 8.62175400 -2.87099600 -1.34204500
H 1.85128900 -2.89494800 -0.36570900
H 3.34293000 -3.07698400 0.46375400
H 3.31871100 -2.83789100 -1.25428700
H 15.79775100 1.85193800 0.28443500
H -13.24681300 -1.98698500 -1.09313200
H -13.93095600 -0.82666400 -2.14702100
H -14.85210100 0.39846800 -0.39252000
H -14.38048600 -0.25617200 1.96394600
H -11.20270800 -1.33738000 0.29128400
H -10.52284800 1.55217200 0.41523000
H -8.87743700 -0.88355100 0.06001000
H -6.64452300 -0.71089100 0.05383300
H -5.34866700 1.92623500 0.40331100
H -4.24817300 -0.79078100 0.00983500
H -2.02569500 -1.05249100 -0.05668300
H -0.23043100 1.28312100 0.24385300
H -12.97153500 1.38520800 -2.40052100
H -11.49333800 1.82264400 -1.64527200
H -12.94406500 1.74895200 -0.71383200
H -10.27638800 -0.26160300 -2.23288600
H -11.64216800 -0.65428900 -3.21246900
H -11.04643800 -1.79341900 -2.06483500
H -12.45722300 0.07535500 3.41690600
H -11.47391500 1.22347100 2.58772900
H -10.93919300 -0.41553200 2.77274100
H -8.56417400 2.55088100 1.41234600
H -8.58985000 2.79176000 -0.30513400
H -7.11339400 2.90222600 0.56408300
H -1.77059000 2.57978000 0.44505400
H -3.23798200 2.52228300 1.33338200
H -3.26189700 2.76152500 -0.38475200
H -15.85470200 -1.56203300 -0.79207000
