98
Lutein source point 3; BLA = -0.0340722503 Angstrom
C 12.64596900 -0.50386100 0.71685100
C 13.93967300 0.12705200 0.31817400
C 13.86746500 1.56001000 0.02956300
C 12.80672800 1.89938100 -0.92481100
C 11.62105300 1.07616700 -0.90498100
C 11.53398900 -0.06873300 -0.16968600
C 10.39692900 -0.85285000 -0.16956600
C 9.09486000 -0.49986900 -0.11522800
C 7.96458300 -1.26536700 -0.18833200
C 6.70092000 -0.69184300 -0.08988200
C 5.48000800 -1.21936700 -0.14917700
C 4.25213900 -0.60315200 -0.04719500
C 3.01003100 -1.12426400 -0.10665700
C 1.87171200 -0.30489800 0.02325700
C 0.58611400 -0.57968100 -0.00237200
C 12.29617200 -0.09496700 2.10365300
C 12.82761000 -1.97865000 0.68371400
C 10.54026200 1.54410200 -1.72791100
C 8.10515300 -2.68432600 -0.37964600
C 2.84532900 -2.54010900 -0.30649400
O 15.12167100 2.09185100 -0.48470500
C -12.11692400 -0.17935700 -1.20381200
C -13.39771800 -0.94838100 -1.21886700
C -14.34244300 -0.57232700 -0.15801000
C -13.71229400 -0.31961300 1.10986300
C -12.41533600 -0.12754900 1.28641100
C -11.48278200 -0.27850800 0.16648900
C -10.31218000 0.54940400 0.27603000
C -9.02265100 0.19708600 0.21172100
C -7.88628900 0.96053800 0.31019800
C -6.62487200 0.38620800 0.21389500
C -5.40371600 0.91267900 0.27626400
C -4.17594300 0.29667600 0.17436000
C -2.93279100 0.81829200 0.23583800
C -1.79582900 0.00035800 0.10615800
C -0.50904700 0.27580700 0.13229300
C -12.38985900 1.24360500 -1.52043700
C -11.19459300 -0.73751500 -2.22179400
C -11.82802100 0.20462800 2.55229600
C -8.03289300 2.37564100 0.51670400
C -2.77020200 2.23418700 0.43749000
O -15.40727100 -1.54977800 0.01677100
H 14.33662600 -0.35951800 -0.56681200
H 14.69593700 -0.04290500 1.07564600
H 13.69227500 2.09455200 0.95862000
H 13.23211800 1.86022500 -1.92578500
H 12.53745300 2.94183700 -0.78504600
H 10.57242100 -1.89572200 -0.27515400
H 8.93046900 0.54241700 0.02733500
H 6.70928200 0.36395500 0.05872900
H 5.42629600 -2.27174100 -0.29767100
H 4.31797600 0.44900000 0.10140900
H 2.10086400 0.72614500 0.16865300
H 0.30581700 -1.59621400 -0.14545900
H 11.36902400 -0.52980700 2.44014600
H 12.18169100 0.97142800 2.20460400
H 13.04387200 -0.38847000 2.82144200
H 13.71392800 -2.29355200 1.21187200
H 12.92464700 -2.35821300 -0.31910900
H 12.01846400 -2.52089700 1.14394800
H 9.87440200 2.17624000 -1.16080800
H 9.93918900 0.75738000 -2.15821400
H 10.86441100 2.13578700 -2.57192900
H 7.18604300 -3.24654000 -0.40345200
H 8.69403600 -3.13538400 0.40586800
H 8.60404100 -2.90949000 -1.31093500
H 1.82816000 -2.89417300 -0.34035300
H 3.31909900 -3.10951600 0.47990400
H 3.29105600 -2.86344700 -1.23593700
H 15.76896800 1.89746400 0.19249800
H -13.19420200 -2.00877200 -1.11832500
H -13.88470200 -0.86110200 -2.18193600
H -14.84452800 0.35229000 -0.44014500
H -14.38928600 -0.29179000 1.92279500
H -11.17581200 -1.32385700 0.28844500
H -10.53621600 1.57558600 0.42065500
H -8.86211400 -0.84521800 0.06045300
H -6.63435200 -0.66920900 0.06233600
H -5.35036700 1.96486300 0.42696400
H -4.24116800 -0.75511800 0.02386900
H -2.02358900 -1.03096400 -0.03983100
H -0.22951400 1.29236500 0.27572500
H -12.95556900 1.36529800 -2.42983900
H -11.49400500 1.82699000 -1.65661400
H -12.95505300 1.73197900 -0.74353700
H -10.23865200 -0.23877600 -2.22806200
H -11.58686900 -0.65603800 -3.22173500
H -10.98560600 -1.78244000 -2.06441800
H -12.48641000 0.07095600 3.39672300
H -11.51971900 1.23950000 2.57643200
H -10.95177300 -0.38746000 2.76817500
H -8.56869500 2.58864100 1.43049600
H -8.59138600 2.83713500 -0.28493000
H -7.11489100 2.93585200 0.58560900
H -1.75335600 2.58888000 0.47525600
H -3.21925400 2.55657900 1.36565600
H -3.24154500 2.80385300 -0.35016100
H -15.81165400 -1.62446500 -0.84750300
