98
Lutein source point 21; BLA = 0.1458315784 Angstrom
C 12.64964800 -0.47803100 0.77819700
C 13.98479600 0.12738100 0.48348300
C 13.95631100 1.54899800 0.13240800
C 12.98098000 1.86571100 -0.91772800
C 11.77470600 1.05938000 -0.93703100
C 11.63430800 -0.01757200 -0.19982300
C 10.41592800 -0.81607700 -0.23238800
C 9.19161000 -0.43385800 -0.16696400
C 7.96102800 -1.21128900 -0.24297400
C 6.79186000 -0.62991000 -0.14881500
C 5.46843800 -1.16910000 -0.19835500
C 4.33713700 -0.55934800 -0.10173700
C 2.97974900 -1.09228100 -0.15024400
C 1.94307200 -0.30197500 -0.03137100
C 0.54517100 -0.58345200 -0.04652400
C 12.19751900 -0.05721300 2.13117400
C 12.79692600 -1.95622400 0.75879000
C 10.75207700 1.54414200 -1.83095500
C 8.14600800 -2.62559900 -0.42791100
C 2.89164700 -2.51569000 -0.33437500
O 15.25580200 2.04537900 -0.29667700
C -12.22467100 -0.15149000 -1.17155900
C -13.54297500 -0.85508200 -1.14935100
C -14.42950400 -0.44399900 -0.05187800
C -13.74230000 -0.23663400 1.19496100
C -12.43213400 -0.11871100 1.32746400
C -11.54925500 -0.30389400 0.17283700
C -10.32705500 0.46155300 0.25290300
C -9.10398500 0.08050400 0.18609600
C -7.87299900 0.85710100 0.27076800
C -6.70282700 0.27478400 0.17670300
C -5.38064800 0.81297100 0.22627600
C -4.24872800 0.20303800 0.12927400
C -2.89112000 0.73622000 0.17792900
C -1.85548600 -0.05306800 0.05927200
C -0.45625800 0.22911500 0.07465500
C -12.43853500 1.28714000 -1.46163700
C -11.36919500 -0.74049100 -2.22970400
C -11.78282300 0.16032500 2.57599600
C -8.05737000 2.27027400 0.46105700
C -2.80408900 2.16004000 0.36199600
O -15.53374000 -1.37077500 0.15316800
H 14.45947300 -0.39469400 -0.34093900
H 14.66311700 -0.01998200 1.31535600
H 13.71205300 2.12118600 1.02268700
H 13.47416400 1.76430900 -1.88154500
H 12.72967200 2.91901400 -0.84955200
H 10.61303500 -1.84625700 -0.39666100
H 9.02121900 0.60589700 -0.02173500
H 6.77757500 0.42568500 -0.01150600
H 5.45277300 -2.22350100 -0.33523700
H 4.36784500 0.49457600 0.03474100
H 2.13071700 0.73769800 0.10112300
H 0.31709100 -1.61390900 -0.17718600
H 11.22895700 -0.45672600 2.38489700
H 12.11586300 1.01286300 2.22548500
H 12.86902600 -0.37923000 2.90947900
H 13.63199100 -2.29061600 1.35419300
H 12.96218400 -2.34057900 -0.23327500
H 11.94135900 -2.47770000 1.15474400
H 10.09588300 2.22962500 -1.31756100
H 10.12903900 0.77033000 -2.25236100
H 11.14260300 2.08020300 -2.68316900
H 7.23922800 -3.20758600 -0.46952500
H 8.72837100 -3.05812300 0.37205700
H 8.66810500 -2.83898500 -1.34874300
H 1.89047300 -2.91454200 -0.37079700
H 3.38549300 -3.04966400 0.46380300
H 3.35873900 -2.82532800 -1.25743700
H 15.84219400 1.87154600 0.43910200
H -13.39012200 -1.92545400 -1.06665700
H -14.05799600 -0.73224300 -2.09374800
H -14.89583500 0.50646600 -0.30750600
H -14.38870600 -0.17705100 2.03073900
H -11.29491300 -1.36556900 0.27076100
H -10.52555500 1.49897700 0.38397000
H -8.93351700 -0.96040900 0.04912700
H -6.68993500 -0.78071200 0.03883200
H -5.36417800 1.86740400 0.36334200
H -4.27945900 -0.85074000 -0.00776100
H -2.04191200 -1.09294400 -0.07332800
H -0.22893400 1.25961700 0.20545000
H -13.03452300 1.44839600 -2.34521100
H -11.52101700 1.82683300 -1.62975600
H -12.94592100 1.79331400 -0.65671900
H -10.38953600 -0.29143500 -2.26326700
H -11.79158100 -0.62339300 -3.21370600
H -11.20952200 -1.79715000 -2.09443200
H -12.42488400 0.07890700 3.43942900
H -11.38796800 1.16553800 2.59352900
H -10.95403100 -0.50490100 2.76409500
H -8.59676700 2.48013700 1.37289700
H -8.62349900 2.70876800 -0.34744800
H -7.15012500 2.84952000 0.52398700
H -1.80308700 2.55936600 0.39851400
H -3.27127300 2.46948500 1.28502700
H -3.29788500 2.69368800 -0.43637000
H -15.97158900 -1.41711200 -0.69664000
