98
Lutein source point 22; BLA = 0.155829761 Angstrom
C 12.65535100 -0.47690700 0.77917900
C 13.99133600 0.12946500 0.48950400
C 13.96303100 1.55071800 0.13666800
C 12.99108200 1.86565400 -0.91716800
C 11.78446000 1.05906500 -0.93763100
C 11.64347800 -0.01445100 -0.20095100
C 10.41957100 -0.81478300 -0.23348100
C 9.19983600 -0.43052800 -0.16804900
C 7.96286500 -1.20969900 -0.24330100
C 6.79881000 -0.62752300 -0.14977100
C 5.46936900 -1.16810300 -0.19858400
C 4.34279500 -0.55796200 -0.10258900
C 2.97912900 -1.09215400 -0.15037800
C 1.94710600 -0.30243200 -0.03265700
C 0.54315900 -0.58473600 -0.04741900
C 12.19925500 -0.05870900 2.13165100
C 12.80279300 -1.95502500 0.75723500
C 10.76385900 1.54412400 -1.83417900
C 8.15067300 -2.62360100 -0.42648200
C 2.89469000 -2.51575400 -0.33282600
O 15.26359400 2.04755900 -0.28850700
C -12.23440600 -0.14905100 -1.17069800
C -13.55473300 -0.84882600 -1.14578100
C -14.43727700 -0.43601900 -0.04573800
C -13.74614100 -0.23142900 1.19949000
C -12.43542800 -0.11836500 1.32882500
C -11.55602200 -0.30521300 0.17171000
C -10.33085000 0.45636500 0.24966100
C -9.11177700 0.07354300 0.18345300
C -7.87469100 0.85194000 0.26756500
C -6.70944900 0.26874400 0.17426100
C -5.38132400 0.80824200 0.22320200
C -4.25414600 0.19785500 0.12707100
C -2.89020000 0.73232000 0.17510400
C -1.85925200 -0.05631600 0.05757100
C -0.45391100 0.22671500 0.07254700
C -12.44504200 1.29047600 -1.45863800
C -11.38345700 -0.73928100 -2.23177700
C -11.78178200 0.15666000 2.57604500
C -8.06158900 2.26471400 0.45630900
C -2.80699800 2.15638200 0.35732600
O -15.54330600 -1.36016200 0.16173500
H 14.46996600 -0.39291000 -0.33244700
H 14.66633700 -0.01649900 1.32429000
H 13.71514900 2.12369400 1.02544200
H 13.48686800 1.76199900 -1.87936800
H 12.73994300 2.91915500 -0.85200300
H 10.61783100 -1.84459900 -0.39747800
H 9.02835700 0.60899800 -0.02381400
H 6.78312500 0.42804700 -0.01378100
H 5.45575800 -2.22253600 -0.33422500
H 4.37162300 0.49600100 0.03259500
H 2.13284700 0.73756300 0.09856000
H 0.31753400 -1.61574400 -0.17684300
H 11.22956700 -0.45798700 2.38143600
H 12.11823700 1.01123400 2.22803900
H 12.86803700 -0.38300400 2.91135400
H 13.63697700 -2.29040800 1.35332100
H 12.96960600 -2.33752000 -0.23529000
H 11.94673200 -2.47739800 1.15091900
H 10.10811300 2.23162100 -1.32290400
H 10.14006200 0.77071100 -2.25513000
H 11.15667300 2.07796200 -2.68671200
H 7.24471800 -3.20698300 -0.46775200
H 8.73338500 -3.05414600 0.37427900
H 8.67341900 -2.83712100 -1.34689700
H 1.89430200 -2.91673100 -0.36902200
H 3.38948100 -3.04761600 0.46615800
H 3.36268900 -2.82536800 -1.25542100
H 15.84757700 1.87512700 0.44951900
H -13.40478100 -1.91970300 -1.06435000
H -14.07173300 -0.72372100 -2.08879700
H -14.90190400 0.51572700 -0.29952000
H -14.39036200 -0.16953300 2.03678800
H -11.30487900 -1.36778400 0.26781300
H -10.52768500 1.49458000 0.37894600
H -8.94002000 -0.96716500 0.04802200
H -6.69520200 -0.78673600 0.03776700
H -5.36680800 1.86272900 0.35887000
H -4.28296200 -0.85596500 -0.00864900
H -2.04372900 -1.09651800 -0.07375600
H -0.22907400 1.25777000 0.20212900
H -13.04337200 1.45436400 -2.34014600
H -11.52652600 1.82770100 -1.62917900
H -12.94841100 1.79728100 -0.65159400
H -10.40256700 -0.29308000 -2.26732400
H -11.80804800 -0.61972400 -3.21453400
H -11.22658900 -1.79657800 -2.09821400
H -12.42277700 0.08027400 3.44073000
H -11.37949700 1.15893800 2.59256000
H -10.95765800 -0.51471400 2.76271400
H -8.60159200 2.47463400 1.36776700
H -8.62798900 2.70152200 -0.35290600
H -7.15509300 2.84524300 0.51901000
H -1.80683300 2.55795900 0.39356300
H -3.27511300 2.46583500 1.27986200
H -3.30180500 2.68775000 -0.44191100
H -15.98337300 -1.40503100 -0.68700000
