98
Lutein source point 6; BLA = -0.0040733243 Angstrom
C 12.63065200 -0.50169000 0.73835700
C 13.93737500 0.11320700 0.35721700
C 13.88411400 1.54438900 0.05518500
C 12.84123200 1.88768700 -0.91754700
C 11.64717600 1.07534200 -0.90912900
C 11.54096000 -0.06239100 -0.17281100
C 10.39484300 -0.84245600 -0.18867900
C 9.10268300 -0.48411400 -0.13232400
C 7.95862000 -1.24695800 -0.21114400
C 6.71118100 -0.67302900 -0.11234200
C 5.47318700 -1.20101700 -0.16964600
C 4.26471700 -0.58888400 -0.06817300
C 3.00095300 -1.11121400 -0.12495100
C 1.88414500 -0.30057400 0.00357000
C 0.57790000 -0.57577600 -0.01826400
C 12.26010000 -0.07732500 2.11500000
C 12.79652400 -1.97847200 0.72075300
C 10.57995600 1.55209200 -1.74555100
C 8.10516200 -2.66558700 -0.40779000
C 2.85403400 -2.52940500 -0.32250300
O 15.15145600 2.05873000 -0.44451800
C -12.12843800 -0.17825400 -1.19295300
C -13.41519300 -0.93751700 -1.20035500
C -14.35050000 -0.55439400 -0.13371700
C -13.71065700 -0.30682700 1.13031800
C -12.41116600 -0.12513800 1.29901600
C -11.48675200 -0.28272500 0.17330800
C -10.30844600 0.53653600 0.27651200
C -9.02671900 0.17822900 0.21000200
C -7.87800100 0.93949000 0.30345200
C -6.63181100 0.36455000 0.20641900
C -5.39446000 0.89140500 0.26473800
C -4.18514000 0.27895300 0.16292200
C -2.92131600 0.80151100 0.22035300
C -1.80542500 -0.00803300 0.09212400
C -0.49806900 0.26798600 0.11428600
C -12.39265200 1.24674500 -1.50781300
C -11.21683500 -0.74318700 -2.21682500
C -11.81366700 0.20154800 2.56154200
C -8.02878300 2.35590400 0.50623900
C -2.77540000 2.22001700 0.41825000
O -15.42167800 -1.52370200 0.04744900
H 14.34479100 -0.38480000 -0.51655100
H 14.67853500 -0.05760400 1.12924300
H 13.70077300 2.08840500 0.97715500
H 13.28030500 1.83650100 -1.91191100
H 12.58074300 2.93370600 -0.78904000
H 10.57188200 -1.88259600 -0.31839200
H 8.94077200 0.55791000 0.01528300
H 6.71555800 0.38275900 0.03581500
H 5.42753800 -2.25422300 -0.31639900
H 4.32280200 0.46401000 0.07848700
H 2.10377500 0.73302300 0.14608800
H 0.30912600 -1.59604500 -0.15831300
H 11.32197500 -0.49884300 2.43774800
H 12.15593300 0.99110600 2.20505500
H 12.99104600 -0.37314400 2.84891000
H 13.66660400 -2.29865500 1.27218200
H 12.91314500 -2.36725800 -0.27644600
H 11.97031900 -2.50774800 1.16561000
H 9.91634400 2.19424200 -1.18726000
H 9.97313600 0.77049500 -2.17710300
H 10.91948000 2.13529600 -2.58925900
H 7.18714200 -3.22880400 -0.44670000
H 8.68414500 -3.11834700 0.38384200
H 8.61623700 -2.88536900 -1.33357600
H 1.84058200 -2.89392400 -0.35998500
H 3.33085700 -3.09073800 0.46773500
H 3.30748800 -2.84908000 -1.24938200
H 15.78638800 1.86335800 0.24401000
H -13.21919400 -1.99944900 -1.10116600
H -13.90734300 -0.84638700 -2.16043300
H -14.84720100 0.37409200 -0.41263700
H -14.38248800 -0.27368800 1.94731900
H -11.18707500 -1.33043300 0.29300500
H -10.52784400 1.56448400 0.41879100
H -8.86841600 -0.86470400 0.06159400
H -6.63773300 -0.69119000 0.05779700
H -5.34839300 1.94454600 0.41252600
H -4.24340200 -0.77366600 0.01532900
H -2.02375400 -1.04189400 -0.05063600
H -0.23004300 1.28828000 0.25450400
H -12.96344900 1.37277100 -2.41344200
H -11.49332300 1.82329000 -1.65004200
H -12.94894500 1.73940500 -0.72720100
H -10.25703600 -0.25204600 -2.22865100
H -11.61452100 -0.65804900 -3.21431800
H -11.01521800 -1.78982900 -2.06125300
H -12.46878000 0.07495700 3.40959900
H -11.49453900 1.23318200 2.58369400
H -10.94246500 -0.39956500 2.77280400
H -8.56383600 2.56976700 1.42006000
H -8.58850600 2.81329400 -0.29665300
H -7.11181100 2.91814400 0.57276400
H -1.76205300 2.58485600 0.45623800
H -3.22913500 2.53936500 1.34506200
H -3.25184100 2.78136000 -0.37215100
H -15.83194400 -1.59506700 -0.81433000
