98
Lutein source point 7; BLA = 0.0059282302 Angstrom
C 12.62849100 -0.50095500 0.74245700
C 13.93823300 0.11086000 0.36651100
C 13.88888900 1.54146600 0.06085000
C 12.85081000 1.88466700 -0.91709900
C 11.65493400 1.07444900 -0.91109500
C 11.54443400 -0.06017100 -0.17443900
C 10.39466100 -0.83971500 -0.19288600
C 9.10623600 -0.47964600 -0.13572600
C 7.95730800 -1.24214900 -0.21495500
C 6.71508800 -0.66777900 -0.11633200
C 5.47158600 -1.19588500 -0.17308100
C 4.26902300 -0.58458400 -0.07179600
C 2.99843200 -1.10727800 -0.12790700
C 1.88827900 -0.29916500 0.00003100
C 0.57516600 -0.57465500 -0.02117700
C 12.25254300 -0.07419800 2.11687800
C 12.79097500 -1.97810200 0.72720400
C 10.59117500 1.55296400 -1.75130400
C 8.10565600 -2.66074800 -0.41163600
C 2.85670300 -2.52613900 -0.32482300
O 15.15933100 2.05226700 -0.43456200
C -12.13269400 -0.17723100 -1.19087100
C -13.42143400 -0.93317000 -1.19642100
C -14.35390400 -0.54809200 -0.12799800
C -13.71122300 -0.30273600 1.13503400
C -12.41094600 -0.12467100 1.30157400
C -11.48895600 -0.28415700 0.17416300
C -10.30798800 0.53200000 0.27590000
C -9.02936500 0.17198900 0.20897900
C -7.87622000 0.93302900 0.30151400
C -6.63495700 0.35776300 0.20439800
C -5.39228000 0.88481500 0.26194500
C -4.18871200 0.27323500 0.16026700
C -2.91824800 0.79618700 0.21693600
C -1.80890600 -0.01086000 0.08920300
C -0.49468600 0.26546600 0.11068800
C -12.39387600 1.24858300 -1.50456900
C -11.22436500 -0.74397500 -2.21666900
C -11.81039400 0.19967900 2.56326400
C -8.02853700 2.34961600 0.50355700
C -2.77744700 2.21540600 0.41411600
O -15.42726800 -1.51471600 0.05461600
H 14.34916400 -0.38978900 -0.50409200
H 14.67521800 -0.05948700 1.14260700
H 13.70255200 2.08791600 0.98078100
H 13.29359100 1.82983700 -1.90957900
H 12.59217300 2.93156300 -0.79231400
H 10.57228500 -1.87919500 -0.32715700
H 8.94476300 0.56236300 0.01241600
H 6.71839800 0.38801600 0.03141600
H 5.42816100 -2.24929400 -0.31929500
H 4.32494500 0.46847100 0.07431400
H 2.10492900 0.73510800 0.14205000
H 0.31010100 -1.59599400 -0.16073800
H 11.31168200 -0.49274200 2.43551700
H 12.15099200 0.99461700 2.20536800
H 12.97911600 -0.37135100 2.85457900
H 13.65748000 -2.29968400 1.28342200
H 12.91182100 -2.36824300 -0.26896500
H 11.96121300 -2.50494000 1.16833400
H 9.92829800 2.19818700 -1.19571400
H 9.98278000 0.77246700 -2.18259100
H 10.93465700 2.13329300 -2.59534400
H 7.18807900 -3.22462800 -0.45191900
H 8.68386300 -3.11294300 0.38082900
H 8.61810400 -2.87983700 -1.33678700
H 1.84433700 -2.89375700 -0.36244300
H 3.33508100 -3.08522900 0.46601000
H 3.31151200 -2.84449300 -1.25144700
H 15.79090300 1.85735000 0.25717900
H -13.22801800 -1.99565000 -1.09804600
H -13.91498800 -0.84033500 -2.15561300
H -14.84869200 0.38179100 -0.40565700
H -14.38156500 -0.26807000 1.95319300
H -11.19191100 -1.33273400 0.29276000
H -10.52599300 1.56049000 0.41776300
H -8.87125100 -0.87101300 0.06115900
H -6.63978600 -0.69800600 0.05636100
H -5.34840000 1.93816000 0.40917000
H -4.24484100 -0.77955200 0.01324400
H -2.02426700 -1.04539000 -0.05302200
H -0.23034400 1.28682000 0.25042200
H -12.96618800 1.37648400 -2.40897900
H -11.49336400 1.82287600 -1.64840200
H -12.94731600 1.74232500 -0.72261400
H -10.26328800 -0.25537600 -2.22984400
H -11.62353000 -0.65718100 -3.21342700
H -11.02526500 -1.79124500 -2.06207800
H -12.46464900 0.07522900 3.41229900
H -11.48756100 1.23016800 2.58518900
H -10.94102000 -0.40459000 2.77304200
H -8.56354600 2.56340200 1.41737200
H -8.58862200 2.80595500 -0.29962300
H -7.11197000 2.91260200 0.56965200
H -1.76518900 2.58335900 0.45205600
H -3.23237600 2.53347900 1.34073200
H -3.25556800 2.77448700 -0.37681800
H -15.83923800 -1.58462700 -0.80647000
