98
Lutein source point 23; BLA = 0.1658306063 Angstrom
C 12.66155200 -0.47566800 0.78052900
C 13.99832100 0.13156500 0.49552900
C 13.97018300 1.55246400 0.14102300
C 13.00124600 1.86580700 -0.91616300
C 11.79434400 1.05889100 -0.93765700
C 11.65293200 -0.01126500 -0.20146400
C 10.42348900 -0.81354400 -0.23389200
C 9.20826800 -0.42728700 -0.16868200
C 7.96494000 -1.20838800 -0.24331400
C 6.80588900 -0.62538200 -0.15077400
C 5.47033700 -1.16735600 -0.19912800
C 4.34847700 -0.55667600 -0.10413900
C 2.97848000 -1.09212500 -0.15137800
C 1.95110200 -0.30292100 -0.03480800
C 0.54110200 -0.58613300 -0.04917300
C 12.20182900 -0.05996500 2.13255400
C 12.80912000 -1.95371200 0.75618200
C 10.77566000 1.54416900 -1.83665100
C 8.15583900 -2.62190800 -0.42460200
C 2.89763600 -2.51588600 -0.33189800
O 15.27172100 2.04967200 -0.28059600
C -12.24477100 -0.14639600 -1.16953100
C -13.56705200 -0.84243600 -1.14163500
C -14.44534300 -0.42806400 -0.03878800
C -13.74994200 -0.22631300 1.20466000
C -12.43871800 -0.11815100 1.33050300
C -11.56307900 -0.30651500 0.17066600
C -10.33496300 0.45121500 0.24627700
C -9.11985900 0.06661600 0.18054300
C -7.87664800 0.84692200 0.26397100
C -6.71628900 0.26279800 0.17127000
C -5.38215600 0.80362600 0.21938600
C -4.25970500 0.19267900 0.12393200
C -2.88931600 0.72839900 0.17120900
C -1.86310800 -0.05968800 0.05488600
C -0.45164400 0.22426300 0.06950100
C -12.45237800 1.29405300 -1.45503800
C -11.39859600 -0.73761100 -2.23387000
C -11.78038000 0.15251800 2.57629400
C -8.06613000 2.25927800 0.45127800
C -2.80972400 2.15262600 0.35160100
O -15.55299300 -1.34972000 0.17134900
H 14.48060100 -0.39110300 -0.32410500
H 14.67023300 -0.01308700 1.33299900
H 13.71906000 2.12616400 1.02841800
H 13.49936200 1.76010700 -1.87690000
H 12.75023700 2.91948300 -0.85377200
H 10.62293800 -1.84302600 -0.39732800
H 9.03553900 0.61199800 -0.02565700
H 6.78877600 0.43016900 -0.01626500
H 5.45871800 -2.22182500 -0.33336400
H 4.37544600 0.49731400 0.02971100
H 2.13494400 0.73738800 0.09508000
H 0.31796000 -1.61768400 -0.17732900
H 11.23110900 -0.45900900 2.37868900
H 12.12142900 1.00984700 2.23094300
H 12.86810000 -0.38644500 2.91348900
H 13.64258900 -2.29003500 1.35274200
H 12.97718900 -2.33446100 -0.23680300
H 11.95267100 -2.47691300 1.14790400
H 10.12026200 2.23346100 -1.32733800
H 10.15124600 0.77110300 -2.25725800
H 11.17059900 2.07603200 -2.68941300
H 7.25084100 -3.20685800 -0.46596800
H 8.73856400 -3.05033900 0.37725800
H 8.67973700 -2.83554200 -1.34431700
H 1.89801000 -2.91891900 -0.36778700
H 3.39334600 -3.04553100 0.46797200
H 3.36651200 -2.82565600 -1.25398200
H 15.85349500 1.87851800 0.45947500
H -13.41991700 -1.91380500 -1.06158700
H -14.08626100 -0.71501100 -2.08312600
H -14.90842700 0.52491600 -0.29054600
H -14.39176700 -0.16213200 2.04362800
H -11.31510800 -1.36997200 0.26476200
H -10.53009600 1.49022400 0.37372800
H -8.94676400 -0.97386400 0.04663500
H -6.70072300 -0.79265200 0.03613900
H -5.36953800 1.85815200 0.35365800
H -4.28666500 -0.86117400 -0.01040300
H -2.04565700 -1.10020700 -0.07508900
H -0.22934500 1.25587300 0.19780000
H -13.05334700 1.46067500 -2.33424000
H -11.53298200 1.82891600 -1.62823300
H -12.95149100 1.80130100 -0.64563100
H -10.41651900 -0.29421000 -2.27157200
H -11.82563300 -0.61543100 -3.21524400
H -11.24445000 -1.79555200 -2.10224400
H -12.42013800 0.08147000 3.44235300
H -11.37017700 1.15159500 2.59173400
H -10.96129900 -0.52540900 2.76136100
H -8.60667900 2.46916500 1.36241300
H -8.63290800 2.69441800 -0.35856000
H -7.16042800 2.84116600 0.51370900
H -1.81030700 2.55622300 0.38755800
H -3.27870100 2.46216200 1.27365100
H -3.30541300 2.68181900 -0.44850900
H -15.99545200 -1.39315400 -0.67620800
