98
Lutein source point 11; BLA = 0.0459268378 Angstrom
C 12.62458800 -0.49483300 0.75594100
C 13.94425400 0.11076200 0.40391000
C 13.90483700 1.53856700 0.08291900
C 12.88666600 1.87571900 -0.91814600
C 11.68616500 1.06933300 -0.92092700
C 11.56277800 -0.04907000 -0.18303700
C 10.39576200 -0.83123700 -0.20851000
C 9.12473200 -0.46531500 -0.14765100
C 7.95439100 -1.22945100 -0.22691600
C 6.73316700 -0.65351800 -0.12878100
C 5.46764600 -1.18315400 -0.18340500
C 4.28682500 -0.57385800 -0.08283900
C 2.99086100 -1.09839500 -0.13669200
C 1.90420100 -0.29788900 -0.01069300
C 0.56574200 -0.57442000 -0.02988200
C 12.22464300 -0.06423600 2.12229700
C 12.77885500 -1.97274200 0.74503400
C 10.63574700 1.55125600 -1.77802100
C 8.11169500 -2.64732400 -0.42212200
C 2.86644800 -2.51924300 -0.33118800
O 15.18611600 2.04091200 -0.39256400
C -12.15197200 -0.17124000 -1.18424300
C -13.44917000 -0.91277700 -1.18293000
C -14.36982100 -0.52009100 -0.10704800
C -13.71562000 -0.28504700 1.15206700
C -12.41223100 -0.12281800 1.31006500
C -11.50018400 -0.28985300 0.17575800
C -10.30776600 0.51269100 0.27216900
C -9.04401000 0.14672900 0.20430400
C -7.87072500 0.90956100 0.29427400
C -6.64975500 0.33285200 0.19723100
C -5.38523800 0.86154200 0.25243100
C -4.20341100 0.25207800 0.15144700
C -2.90771600 0.77683900 0.20574100
C -1.82179900 -0.02276200 0.07997100
C -0.48225400 0.25454700 0.09941900
C -12.39982700 1.25821900 -1.49215800
C -11.25734700 -0.74493800 -2.21819600
C -11.79919000 0.19043200 2.56855100
C -8.03073900 2.32589500 0.49381300
C -2.78401100 2.19802700 0.40039200
O -15.45240600 -1.47538500 0.08079600
H 14.37353900 -0.39870000 -0.45261700
H 14.66327700 -0.05389500 1.19777700
H 13.70192000 2.09436600 0.99370600
H 13.34557500 1.80553300 -1.90205900
H 12.63191900 2.92534200 -0.81092500
H 10.57839000 -1.86766800 -0.35759300
H 8.96268200 0.57635400 0.00148000
H 6.73193600 0.40229000 0.01695200
H 5.43232300 -2.23706400 -0.32781700
H 4.33519400 0.47960500 0.06134000
H 2.11113500 0.73839400 0.12945300
H 0.31287500 -1.59903700 -0.16775900
H 11.27382100 -0.47432100 2.42185800
H 12.13092400 1.00550900 2.20829100
H 12.93344100 -0.36744000 2.87467500
H 13.63313800 -2.29839100 1.31754800
H 12.91594600 -2.36478400 -0.24829300
H 11.93802000 -2.49437900 1.17117100
H 9.97488000 2.20916400 -1.23517500
H 10.02238200 0.77335500 -2.20670700
H 10.99460800 2.11828100 -2.62450200
H 7.19667500 -3.21549000 -0.46345600
H 8.69077600 -3.09543200 0.37187600
H 8.62657400 -2.86401700 -1.34639900
H 1.85770300 -2.89713300 -0.36880200
H 3.35011200 -3.07089200 0.46146200
H 3.32525500 -2.83346100 -1.25709100
H 15.80344700 1.85124800 0.31335600
H -13.26699300 -1.97760700 -1.08865700
H -13.94823300 -0.81189600 -2.13844300
H -14.85633100 0.41581900 -0.37897400
H -14.37993200 -0.24410700 1.97483000
H -11.21470800 -1.34218900 0.28914200
H -10.52054000 1.54345800 0.41237700
H -8.88426300 -0.89605700 0.05856800
H -6.64995500 -0.72291900 0.05126300
H -5.34940700 1.91541300 0.39764400
H -4.25200000 -0.80116000 0.00644100
H -2.02753500 -1.05926800 -0.06033800
H -0.23005300 1.27917800 0.23742000
H -12.97790200 1.39490000 -2.39161000
H -11.49420700 1.82289000 -1.64184500
H -12.94150100 1.75597100 -0.70452500
H -10.29087600 -0.26728400 -2.23644000
H -11.66236400 -0.65029600 -3.21187100
H -11.06920200 -1.79492900 -2.06841200
H -12.45014300 0.07492800 3.42137700
H -11.46006600 1.21569500 2.59018100
H -10.93820300 -0.42782300 2.77205500
H -8.56627300 2.53856400 1.40745000
H -8.59250700 2.77797300 -0.31045000
H -7.11631400 2.89270100 0.55881000
H -1.77534200 2.57615800 0.43820700
H -3.24284600 2.51209200 1.32629500
H -3.26745600 2.74968400 -0.39233500
H -15.87124600 -1.53849300 -0.77749500
