98
Lutein source point 2; BLA = -0.0465727978 Angstrom
C 12.65691700 -0.49730000 0.70458100
C 13.93669300 0.15280100 0.29188400
C 13.84120100 1.58526300 0.00822200
C 12.76613600 1.91035300 -0.93490000
C 11.59143400 1.07242000 -0.90174400
C 11.52517600 -0.07211700 -0.16180400
C 10.39494600 -0.86435300 -0.14072500
C 9.08751300 -0.52042600 -0.09023800
C 7.96644200 -1.29483200 -0.15180900
C 6.69327200 -0.72729400 -0.05900300
C 5.48155600 -1.26107800 -0.12095100
C 4.24333400 -0.64663200 -0.02370800
C 3.00226400 -1.13775700 -0.08232500
C 1.86903700 -0.28841600 0.04760700
C 0.59276200 -0.57370200 0.01748500
C 12.32223800 -0.10176800 2.09906900
C 12.85872900 -1.96929600 0.65920500
C 10.49862300 1.52407700 -1.71740800
C 8.11252000 -2.71480800 -0.32645700
C 2.73033900 -2.53725100 -0.27809200
O 15.08218700 2.13669400 -0.51719300
C -12.10174900 -0.18633200 -1.22231300
C -13.37591700 -0.96615800 -1.24213700
C -14.32931400 -0.59554300 -0.18713700
C -13.70798200 -0.33440300 1.08337400
C -12.41364500 -0.13090700 1.26621100
C -11.47397100 -0.27679700 0.15157200
C -10.31119800 0.56110300 0.26490500
C -9.01762300 0.21895300 0.20615400
C -7.88995300 0.99101700 0.30808100
C -6.61920300 0.42362600 0.21714000
C -5.40700100 0.95699400 0.28304600
C -4.16937900 0.34368300 0.18587600
C -2.92653900 0.83601100 0.24596700
C -1.79509100 -0.01158500 0.11642300
C -0.51750900 0.27438900 0.14696800
C -12.38490100 1.23353300 -1.54380800
C -11.16932900 -0.73911100 -2.23399500
C -11.83575200 0.20966100 2.53419100
C -8.04422200 2.40491300 0.51200600
C -2.65767600 2.23582500 0.44287400
O -15.38671100 -1.58159100 -0.01550000
H 14.32969200 -0.32555700 -0.59936900
H 14.70458700 -0.00866400 1.03946200
H 13.66731100 2.11501400 0.94024900
H 13.18179700 1.87665400 -1.94024400
H 12.48463500 2.94936800 -0.79291500
H 10.57427700 -1.90898200 -0.21595900
H 8.91528300 0.52211100 0.03974900
H 6.69839500 0.32906200 0.08563500
H 5.43544600 -2.31288900 -0.26754500
H 4.32338500 0.40616800 0.12396600
H 2.10975500 0.73832900 0.19141600
H 0.32413200 -1.59443300 -0.12531700
H 11.40594400 -0.55088800 2.44636600
H 12.19546100 0.96238500 2.20861600
H 13.08419800 -0.39001900 2.80387800
H 13.76097500 -2.27449200 1.16569700
H 12.93847800 -2.34186600 -0.34774700
H 12.06842000 -2.52604800 1.13451400
H 9.82913700 2.15031500 -1.14791100
H 9.90468300 0.72852700 -2.14127300
H 10.80888400 2.11728500 -2.56569400
H 7.19705900 -3.28344500 -0.32587500
H 8.71833000 -3.15278300 0.45369700
H 8.59638400 -2.94856000 -1.26361000
H 2.16431200 -2.94999000 0.54388100
H 3.59827500 -3.16948200 -0.37387700
H 2.15165500 -2.70702800 -1.17401600
H 15.73903600 1.95047200 0.15308300
H -13.16399700 -2.02454900 -1.13794600
H -13.85858100 -0.88529300 -2.20793900
H -14.83774700 0.32407900 -0.47418700
H -14.38942300 -0.31032300 1.89269800
H -11.15880800 -1.31920200 0.27775500
H -10.54366100 1.58565300 0.40717900
H -8.84887100 -0.82238100 0.05684100
H -6.62467300 -0.63207500 0.06725200
H -5.36231000 2.00861600 0.43208700
H -4.24795400 -0.70892900 0.03678600
H -2.03422500 -1.03873500 -0.02775300
H -0.24972400 1.29516500 0.29007600
H -12.94666600 1.34831000 -2.45654900
H -11.49325200 1.82411800 -1.67650700
H -12.95838400 1.71895900 -0.77114500
H -10.21767300 -0.23220000 -2.23656200
H -11.55705400 -0.66353900 -3.23617400
H -10.95222200 -1.78180000 -2.07282600
H -12.49694700 0.07143800 3.37569000
H -11.53766400 1.24753700 2.55744000
H -10.95483300 -0.37335400 2.75569900
H -8.58426600 2.61662800 1.42371800
H -8.60287300 2.86262400 -0.29182200
H -7.12956700 2.97031200 0.58303400
H -2.09226400 2.65067500 -0.37858800
H -2.07916000 2.40648300 1.33885700
H -3.52687300 2.86622400 0.53911800
H -15.78591500 -1.66175800 -0.88168600
