98
Lutein source point 18; BLA = 0.115831617 Angstrom
C 12.63621500 -0.48231900 0.77345800
C 13.96803600 0.12160300 0.46314000
C 13.93777900 1.54467000 0.11891700
C 12.95154500 1.86685700 -0.91904200
C 11.74649300 1.06117500 -0.93435200
C 11.60911900 -0.02710200 -0.19618100
C 10.40690600 -0.82016500 -0.22803400
C 9.16872100 -0.44348400 -0.16302800
C 7.95686400 -1.21601600 -0.24061200
C 6.77230400 -0.63670600 -0.14465600
C 5.46673300 -1.17225400 -0.19585400
C 4.32100100 -0.56336300 -0.09744100
C 2.98227200 -1.09307600 -0.14768200
C 1.93126800 -0.30057600 -0.02597900
C 0.55130900 -0.57996600 -0.04227800
C 12.19720300 -0.05593100 2.12900100
C 12.78419200 -1.96058700 0.75937500
C 10.71684900 1.54516200 -1.81913000
C 8.13317600 -2.63149100 -0.42987600
C 2.88339200 -2.51587700 -0.33608200
O 15.23323200 2.04118100 -0.32241100
C -12.19837500 -0.15822500 -1.17485000
C -13.51050200 -0.87325900 -1.15992700
C -14.40824700 -0.46746800 -0.06963100
C -13.73199700 -0.25170400 1.18151500
C -12.42365000 -0.11979800 1.32271500
C -11.53104900 -0.29981800 0.17494800
C -10.31778400 0.47704600 0.26073500
C -9.08258400 0.10092700 0.19296000
C -7.86957200 0.87250000 0.27933200
C -6.68440900 0.29239800 0.18378300
C -5.37991600 0.82704900 0.23523600
C -4.23349200 0.21804400 0.13647700
C -2.89473400 0.74798100 0.18697200
C -1.84464300 -0.04360600 0.06548200
C -0.46349100 0.23647400 0.08200600
C -12.42215800 1.27768300 -1.47092700
C -11.33013100 -0.74317600 -2.22484200
C -11.78640900 0.17064500 2.57473200
C -8.04634900 2.28681100 0.47325200
C -2.79671800 2.17114500 0.37537100
O -15.50654500 -1.40251400 0.12914700
H 14.43046400 -0.39830100 -0.36955700
H 14.65707300 -0.03034900 1.28541400
H 13.70455000 2.11343700 1.01432400
H 13.43618700 1.77299800 -1.88809000
H 12.69961100 2.91943600 -0.84106000
H 10.60010700 -1.85175500 -0.39121300
H 9.00144600 0.59692900 -0.01546400
H 6.76212600 0.41896400 -0.00398100
H 5.44508900 -2.22654800 -0.33585500
H 4.35714400 0.49045400 0.04218800
H 2.12456800 0.73814500 0.10963100
H 0.31591300 -1.60877400 -0.17591100
H 11.23274000 -0.45725900 2.39509900
H 12.11284800 1.01431400 2.21874800
H 12.87802300 -0.37170000 2.90176100
H 13.62305800 -2.29219300 1.35097000
H 12.94357000 -2.34897700 -0.23207600
H 11.93120300 -2.48064000 1.16271200
H 10.05921700 2.22365100 -1.29831400
H 10.09636600 0.77015200 -2.24230100
H 11.09944500 2.08907800 -2.67005900
H 7.22380800 -3.20916400 -0.47152400
H 8.71486900 -3.06946300 0.36768200
H 8.65271700 -2.84516300 -1.35213700
H 1.87994500 -2.90853100 -0.37305800
H 3.37438200 -3.05569300 0.45998800
H 3.34791100 -2.82604200 -1.26031900
H 15.82751200 1.86307700 0.40596600
H -13.34888800 -1.94205900 -1.07355400
H -14.02010000 -0.75716200 -2.10811300
H -14.88019300 0.47887800 -0.33054000
H -14.38445200 -0.19832000 2.01299700
H -11.26720700 -1.35875800 0.27798400
H -10.52097100 1.51227600 0.39583300
H -8.91581800 -0.94062800 0.05241400
H -6.67553200 -0.76318800 0.04266300
H -5.35764800 1.88135000 0.37560700
H -4.26971300 -0.83561400 -0.00377200
H -2.03678600 -1.08252600 -0.07024400
H -0.22877300 1.26531200 0.21575800
H -13.01183600 1.43123600 -2.36007900
H -11.50788400 1.82482900 -1.63254300
H -12.94084100 1.78171700 -0.67189200
H -10.35428200 -0.28552600 -2.25308400
H -11.74654200 -0.63323000 -3.21221000
H -11.16197100 -1.79788400 -2.08473300
H -12.43138700 0.07634000 3.43467200
H -11.41145500 1.18341100 2.59439800
H -10.94553600 -0.47797700 2.76734600
H -8.58428100 2.49710800 1.38589400
H -8.61132200 2.72989500 -0.33360600
H -7.13683800 2.86215800 0.53685700
H -1.79339800 2.56415800 0.41248600
H -3.26132100 2.48117400 1.29957300
H -3.28759300 2.71077700 -0.42084500
H -15.93818400 -1.45359500 -0.72357400
