98
Lutein source point 20; BLA = 0.1358309797 Angstrom
C 12.64461300 -0.47944700 0.77686300
C 13.97874500 0.12546900 0.47727500
C 13.94972900 1.54753400 0.12831700
C 12.97111600 1.86587600 -0.91817000
C 11.76518100 1.05983300 -0.93626100
C 11.62560100 -0.02077900 -0.19869100
C 10.41267000 -0.81742900 -0.23116100
C 9.18375900 -0.43711600 -0.16577200
C 7.95945800 -1.21282300 -0.24236200
C 6.78519900 -0.63216200 -0.14756600
C 5.46777000 -1.17005500 -0.19771700
C 4.33169500 -0.56064600 -0.10048600
C 2.98055800 -1.09242800 -0.14964300
C 1.93914400 -0.30145700 -0.02982200
C 0.54723800 -0.58216400 -0.04543000
C 12.19648400 -0.05672000 2.13057300
C 12.79211800 -1.95766700 0.75930500
C 10.74037000 1.54435000 -1.82735000
C 8.14148800 -2.62752700 -0.42889100
C 2.88887100 -2.51564300 -0.33531500
O 15.24801800 2.04395600 -0.30445300
C -12.21553300 -0.15385000 -1.17244800
C -13.53178600 -0.86126300 -1.15268200
C -14.42208500 -0.45191300 -0.05763300
C -13.73858800 -0.24173800 1.19067200
C -12.42899600 -0.11905800 1.32611000
C -11.54283900 -0.30255100 0.17379000
C -10.32362700 0.46673000 0.25575300
C -9.09654500 0.08737900 0.18844500
C -7.87159900 0.86223100 0.27362600
C -6.69646600 0.28073000 0.17889700
C -5.38021900 0.81770000 0.22902200
C -4.24350200 0.20817500 0.13125400
C -2.89222300 0.74021700 0.18050700
C -1.85180200 -0.04977800 0.06092800
C -0.45862100 0.23162300 0.07677400
C -12.43270100 1.28387300 -1.46460700
C -11.35575900 -0.74158700 -2.22783300
C -11.78378700 0.16390200 2.57582900
C -8.05342400 2.27578800 0.46523200
C -2.80153500 2.16381500 0.36620700
O -15.52438900 -1.38140900 0.14525000
H 14.44960600 -0.39596400 -0.34973200
H 14.66041200 -0.02332900 1.30618200
H 13.70880600 2.11869400 1.02016000
H 13.46173100 1.76669900 -1.88357400
H 12.71965400 2.91898200 -0.84705400
H 10.60852300 -1.84803300 -0.39537400
H 9.01446600 0.60286500 -0.01963700
H 6.77231000 0.42346000 -0.00905700
H 5.45009800 -2.22442200 -0.33573400
H 4.36423800 0.49324600 0.03712100
H 2.12867500 0.73790400 0.10378700
H 0.31671400 -1.61207700 -0.17716500
H 11.22920000 -0.45683300 2.38817300
H 12.11391000 1.01342000 2.22328900
H 12.87088400 -0.37662300 2.90725000
H 13.62828400 -2.29111300 1.35369000
H 12.95570400 -2.34339300 -0.23250400
H 11.93728800 -2.47866100 1.15748800
H 10.08372900 2.22768200 -1.31166100
H 10.11811300 0.77015600 -2.24927400
H 11.12844200 2.08281900 -2.67919600
H 7.23382000 -3.20803900 -0.47052000
H 8.72366500 -3.06197300 0.37019500
H 8.66267300 -2.84093400 -1.35025200
H 1.88693800 -2.91243100 -0.37199500
H 3.38173900 -3.05162200 0.46214200
H 3.35514300 -2.82537900 -1.25877500
H 15.83679200 1.86879700 0.42910000
H -13.37601300 -1.93111800 -1.06873800
H -14.04499300 -0.74069800 -2.09835700
H -14.89025000 0.49720500 -0.31504300
H -14.38703200 -0.18432400 2.02501900
H -11.28528800 -1.36331700 0.27346200
H -10.52373400 1.50339600 0.38836200
H -8.92735400 -0.95375100 0.05016200
H -6.68490800 -0.77479100 0.03982100
H -5.36182400 1.87208700 0.36731900
H -4.27607400 -0.84557300 -0.00690400
H -2.04014200 -1.08934100 -0.07277700
H -0.22882000 1.26157700 0.20862400
H -13.02654700 1.44250700 -2.35009200
H -11.51624400 1.82604700 -1.63052600
H -12.94391000 1.78938800 -0.66169800
H -10.37736400 -0.28965100 -2.25964500
H -11.77615300 -0.62696500 -3.21297800
H -11.19323200 -1.79759300 -2.09087100
H -12.42681300 0.07783200 3.43809100
H -11.39596600 1.17183600 2.59419000
H -10.95064600 -0.49548200 2.76535800
H -8.59223500 2.48573900 1.37740700
H -8.61925500 2.71585600 -0.34264200
H -7.14541700 2.85373300 0.52832400
H -1.79976200 2.56103900 0.40302900
H -3.26791100 2.47333300 1.28964300
H -3.29432400 2.69955700 -0.43140200
H -15.96015100 -1.42928600 -0.70554900
