98
Lutein source point 17; BLA = 0.1058296012 Angstrom
C 12.63291900 -0.48387100 0.77144700
C 13.96335000 0.11993000 0.45562200
C 13.93211400 1.54356700 0.11413500
C 12.94187100 1.86765500 -0.91931500
C 11.73734800 1.06203700 -0.93310100
C 11.60142300 -0.03027000 -0.19473100
C 10.40449600 -0.82161700 -0.22603300
C 9.16163100 -0.44666300 -0.16132900
C 7.95591400 -1.21774400 -0.23924600
C 6.76616200 -0.63903500 -0.14283500
C 5.46646000 -1.17352900 -0.19451500
C 4.31583900 -0.56479000 -0.09565600
C 2.98327700 -1.09358700 -0.14642100
C 1.92738400 -0.30020900 -0.02395700
C 0.55336300 -0.57904000 -0.04064300
C 12.19876300 -0.05619900 2.12815300
C 12.78148400 -1.96212600 0.75856900
C 10.70506500 1.54571700 -1.81444000
C 8.12940500 -2.63360500 -0.42961600
C 2.88084200 -2.51617100 -0.33594200
O 15.22593200 2.04053800 -0.33155200
C -12.19056600 -0.16015600 -1.17607900
C -13.50059800 -0.87900100 -1.16335600
C -14.40182000 -0.47509600 -0.07523300
C -13.72892700 -0.25661800 1.17719600
C -12.42122700 -0.12022500 1.32101700
C -11.52565100 -0.29840000 0.17531800
C -10.31535400 0.48219300 0.26283900
C -9.07607500 0.10759900 0.19489800
C -7.86894100 0.87763000 0.28181600
C -6.67872300 0.29813000 0.18592500
C -5.38005800 0.83170900 0.23796300
C -4.22872000 0.22284900 0.13876100
C -2.89617700 0.75184700 0.18983000
C -1.84117000 -0.04064700 0.06757700
C -0.46598500 0.23886900 0.08449400
C -12.41774000 1.27486400 -1.47389600
C -11.31833900 -0.74355900 -2.22363400
C -11.78767500 0.17368100 2.57407400
C -8.04320400 2.29229200 0.47674400
C -2.79454000 2.17477800 0.37938200
O -15.49799500 -1.41299500 0.12169400
H 14.42147000 -0.39889300 -0.38012200
H 14.65626700 -0.03365100 1.27435600
H 13.70275200 2.11087200 1.01146600
H 13.42335300 1.77664500 -1.89026600
H 12.68961500 2.91992300 -0.83773400
H 10.59630800 -1.85377600 -0.38817200
H 8.99527700 0.59395900 -0.01326000
H 6.75730800 0.41666600 -0.00127900
H 5.44285100 -2.22778700 -0.33532900
H 4.35374400 0.48899200 0.04479400
H 2.12255900 0.73819600 0.11247300
H 0.31554000 -1.60729300 -0.17506000
H 11.23590700 -0.45843400 2.39864400
H 12.11329500 1.01404400 2.21681000
H 12.88307800 -0.37001200 2.89862300
H 13.62204400 -2.29280400 1.34827200
H 12.93839000 -2.35149500 -0.23289000
H 11.92974400 -2.48204300 1.16471600
H 10.04693500 2.22160200 -1.29085500
H 10.08552400 0.77027700 -2.23827000
H 11.08467100 2.09255800 -2.66487100
H 7.21920200 -3.20989500 -0.47107600
H 8.71092900 -3.07317900 0.36721000
H 8.64804600 -2.84756500 -1.35233300
H 1.87665600 -2.90678900 -0.37305600
H 3.37085600 -3.05776100 0.45954900
H 3.34454900 -2.82670300 -1.26048400
H 15.82311500 1.86091300 0.39406900
H -13.33604400 -1.94726500 -1.07588000
H -14.00857000 -0.76505900 -2.11267500
H -14.87576600 0.46983100 -0.33774100
H -14.38321700 -0.20519100 2.00735900
H -11.25868800 -1.35642700 0.27986600
H -10.51999600 1.51673900 0.39897300
H -8.91048100 -0.93416200 0.05337900
H -6.67118800 -0.75748800 0.04391600
H -5.35584600 1.88596500 0.37922500
H -4.26673600 -0.83076400 -0.00236200
H -2.03520400 -1.07925000 -0.06898700
H -0.22882500 1.26714800 0.21902700
H -13.00556600 1.42598600 -2.36468600
H -11.50462900 1.82452200 -1.63356400
H -12.93992800 1.77804000 -0.67660600
H -10.34378800 -0.28305000 -2.25026300
H -11.73296700 -0.63582200 -3.21199500
H -11.14733800 -1.79762200 -2.08211400
H -12.43356300 0.07581800 3.43293300
H -11.41845300 1.18854000 2.59422900
H -10.94344600 -0.47012400 2.76821000
H -8.58069800 2.50284400 1.38960000
H -8.60775700 2.73680100 -0.32964300
H -7.13294800 2.86635500 0.54054300
H -1.79046300 2.56571200 0.41663900
H -3.25831200 2.48518100 1.30389800
H -3.28442100 2.71623600 -0.41623400
H -15.92771100 -1.46568900 -0.73190300
