98
Lutein source point 19; BLA = 0.1258311027 Angstrom
C 12.64012500 -0.48087400 0.77520500
C 13.97314600 0.12354700 0.47038500
C 13.94351500 1.54610000 0.12373200
C 12.96122000 1.86628900 -0.91865400
C 11.75572100 1.06044800 -0.93541500
C 11.61716700 -0.02395300 -0.19753900
C 10.40961800 -0.81878900 -0.22975000
C 9.17608700 -0.44031700 -0.16452100
C 7.95803800 -1.21439800 -0.24162700
C 6.77863900 -0.63443300 -0.14624600
C 5.46716000 -1.17111700 -0.19691200
C 4.32627800 -0.56199600 -0.09906900
C 2.98136000 -1.09270800 -0.14874900
C 1.93518600 -0.30100400 -0.02795500
C 0.54927300 -0.58102500 -0.04386700
C 12.19640400 -0.05629100 2.12977800
C 12.78783800 -1.95911800 0.75942900
C 10.72857600 1.54470000 -1.82345900
C 8.13721100 -2.62949600 -0.42953000
C 2.88606000 -2.51573100 -0.33579700
O 15.24044500 2.04258000 -0.31315800
C -12.20670000 -0.15609900 -1.17364000
C -13.52089000 -0.86734200 -1.15637300
C -14.41498900 -0.45976700 -0.06374200
C -13.73518600 -0.24675500 1.18602400
C -12.42620000 -0.11940300 1.32441200
C -11.53676200 -0.30119400 0.17443000
C -10.32051400 0.47189400 0.25836400
C -9.08937800 0.09418700 0.19082500
C -7.87043000 0.86737600 0.27658500
C -6.69029500 0.28659900 0.18146800
C -5.37994000 0.82237600 0.23227500
C -4.23839200 0.21313800 0.13402600
C -2.89339000 0.74408900 0.18388800
C -1.84816400 -0.04666900 0.06329600
C -0.46102200 0.23404400 0.07942700
C -12.42716600 1.28071000 -1.46780900
C -11.34261200 -0.74246500 -2.22625500
C -11.78504500 0.16742600 2.57530000
C -8.04973800 2.28132900 0.46933600
C -2.79901800 2.16748700 0.37093400
O -15.51531500 -1.39203200 0.13703500
H 14.43991000 -0.39714400 -0.35940300
H 14.65840800 -0.02678100 1.29607700
H 13.70629100 2.11609700 1.01730900
H 13.44896000 1.76968800 -1.88582300
H 12.70951100 2.91914000 -0.84421300
H 10.60416000 -1.84986800 -0.39357900
H 9.00782900 0.59988800 -0.01764500
H 6.76711200 0.42121800 -0.00664000
H 5.44749200 -2.22545400 -0.33593100
H 4.36063300 0.49186300 0.03956600
H 2.12660300 0.73804000 0.10667400
H 0.31630800 -1.61039100 -0.17655900
H 11.23047000 -0.45697000 2.39150900
H 12.11298200 1.01390800 2.22098400
H 12.87390600 -0.37415200 2.90459400
H 13.62526400 -2.29165200 1.35254600
H 12.94944800 -2.34619600 -0.23217500
H 11.93385400 -2.47961300 1.16007700
H 10.07144400 2.22569500 -1.30530000
H 10.10718100 0.77010300 -2.24598000
H 11.11401000 2.08579700 -2.67487000
H 7.22869900 -3.20860700 -0.47108700
H 8.71922600 -3.06569800 0.36874100
H 8.65750000 -2.84302400 -1.35138600
H 1.88336400 -2.91044500 -0.37260600
H 3.37800500 -3.05363900 0.46095200
H 3.35143000 -2.82567600 -1.25966100
H 15.83188100 1.86599100 0.41790200
H -13.36218300 -1.93667200 -1.07120400
H -14.03224400 -0.74902600 -2.10333800
H -14.88503400 0.48796900 -0.32293700
H -14.38568400 -0.19136800 2.01890900
H -11.27606600 -1.36105100 0.27582700
H -10.52218900 1.50783900 0.39222500
H -8.92140500 -0.94716100 0.05139600
H -6.68007900 -0.76896100 0.04137300
H -5.35960400 1.87672700 0.37160400
H -4.27280400 -0.84056900 -0.00520200
H -2.03840800 -1.08591500 -0.07143900
H -0.22875700 1.26344500 0.21224500
H -13.01885100 1.43677400 -2.35519300
H -11.51178300 1.82537500 -1.63149800
H -12.94219700 1.78550700 -0.66689400
H -10.36548200 -0.28767100 -2.25621300
H -11.76094700 -0.63020000 -3.21254700
H -11.17727500 -1.79782500 -2.08769100
H -12.42907800 0.07719900 3.43638600
H -11.40376500 1.17784000 2.59429200
H -10.94794400 -0.48648000 2.76642000
H -8.58810200 2.49146000 1.38174700
H -8.61515100 2.72289300 -0.33803000
H -7.14098300 2.85798500 0.53266900
H -1.79646400 2.56259700 0.40786400
H -3.26446800 2.47726600 1.29477200
H -3.29087900 2.70517800 -0.42596100
H -15.94898700 -1.44151300 -0.71474400
