98
Lutein source point 5; BLA = -0.014072318 Angstrom
C 12.63361100 -0.50239600 0.73383200
C 13.93703600 0.11633700 0.34782100
C 13.87910800 1.54803000 0.04928000
C 12.83148100 1.89062900 -0.91852800
C 11.63956700 1.07557000 -0.90745000
C 11.53813700 -0.06463900 -0.17134700
C 10.39523100 -0.84571000 -0.18392500
C 9.09969300 -0.48907200 -0.12849900
C 7.96023000 -1.25249200 -0.20660700
C 6.70758700 -0.67880300 -0.10793600
C 5.47511600 -1.20660700 -0.16588400
C 4.26049100 -0.59329700 -0.06423600
C 3.00374900 -1.11514900 -0.12174100
C 1.87996700 -0.30164500 0.00732800
C 0.58076100 -0.57658900 -0.01522000
C 12.26832000 -0.08118800 2.11285600
C 12.80351800 -1.97872300 0.71316300
C 10.56883900 1.55003800 -1.74033300
C 8.10493300 -2.67112900 -0.40260500
C 2.85099700 -2.53255600 -0.31990600
O 15.14313200 2.06664300 -0.45442600
C -12.12444200 -0.17918300 -1.19527200
C -13.40908800 -0.94191700 -1.20467300
C -14.34727500 -0.56112200 -0.13970900
C -13.71028200 -0.31149200 1.12535800
C -12.41160800 -0.12606900 1.29620400
C -11.48480200 -0.28150500 0.17215500
C -10.30916000 0.54085600 0.27696300
C -9.02462100 0.18456700 0.21090400
C -7.88016700 0.94649500 0.30550800
C -6.62901900 0.37195200 0.20855100
C -5.39703200 0.89877000 0.26773900
C -4.18172200 0.28535500 0.16576400
C -2.92474500 0.80762800 0.22407200
C -1.80193800 -0.00463000 0.09524200
C -0.50159300 0.27111300 0.11813000
C -12.39191100 1.24504400 -1.51089600
C -11.20951000 -0.74193100 -2.21739200
C -11.81714900 0.20266400 2.55961800
C -8.02968900 2.36260300 0.50913900
C -2.77341500 2.22535900 0.42276500
O -15.41611900 -1.53330600 0.03985800
H 14.34146000 -0.37883300 -0.52894700
H 14.68225000 -0.05443200 1.11596100
H 13.69816500 2.08960000 0.97316000
H 13.26699300 1.84286900 -1.91466700
H 12.56871200 2.93570400 -0.78675900
H 10.57186400 -1.88654300 -0.30809000
H 8.93715400 0.55299100 0.01812700
H 6.71318900 0.37698400 0.04051500
H 5.42696200 -2.25958400 -0.31308700
H 4.32105300 0.45940100 0.08297400
H 2.10281600 0.73118300 0.15042500
H 0.30806400 -1.59569000 -0.15579600
H 11.33303100 -0.50603600 2.43944000
H 12.16133300 0.98678400 2.20500900
H 13.00364500 -0.37587300 2.84283800
H 13.67753500 -2.29732400 1.25926500
H 12.91563500 -2.36568200 -0.28526000
H 11.98136800 -2.51103100 1.16188200
H 9.90439700 2.18926100 -1.17964700
H 9.96374500 0.76709100 -2.17188300
H 10.90436300 2.13580000 -2.58391300
H 7.18647800 -3.23374900 -0.43940700
H 8.68512800 -3.12410700 0.38808100
H 8.61420700 -2.89199400 -1.32917200
H 1.83629600 -2.89350700 -0.35709800
H 3.32607900 -3.09638300 0.46965600
H 3.30277700 -2.85376600 -1.24711500
H 15.78136300 1.87130900 0.23105600
H -13.21035600 -2.00328800 -1.10492100
H -13.89984300 -0.85233000 -2.16561200
H -14.84603300 0.36594300 -0.41969000
H -14.38357200 -0.28013400 1.94123000
H -11.18248600 -1.32836200 0.29270300
H -10.53014300 1.56823100 0.41976000
H -8.86567900 -0.85821300 0.06182400
H -6.63598400 -0.68373600 0.05924300
H -5.34872000 1.95166500 0.41618400
H -4.24218500 -0.76706500 0.01752500
H -2.02344000 -1.03773700 -0.04814800
H -0.22964100 1.29023500 0.25892700
H -12.96135200 1.36935300 -2.41761500
H -11.49387500 1.82399500 -1.65152400
H -12.95099100 1.73634000 -0.73141600
H -10.25105400 -0.24813100 -2.22777000
H -11.60573800 -0.65825200 -3.21558900
H -11.00524400 -1.78795300 -2.06110400
H -12.47310700 0.07378100 3.40667500
H -11.50169100 1.23541300 2.58220900
H -10.94415300 -0.39536700 2.77222900
H -8.56489500 2.57638600 1.42294900
H -8.58911600 2.82103400 -0.29343400
H -7.11242100 2.92427100 0.57619000
H -1.75893100 2.58692400 0.46075000
H -3.22581200 2.54603400 1.34982200
H -3.24811100 2.78913700 -0.36701200
H -15.82470900 -1.60601200 -0.82260600
