98
Lutein source point 8; BLA = 0.0159277427 Angstrom
C 12.62695900 -0.49983800 0.74592300
C 13.93938300 0.10983900 0.37558900
C 13.89305600 1.53981800 0.06624600
C 12.85983900 1.88209600 -0.91723700
C 11.66252300 1.07336100 -0.91345000
C 11.54838300 -0.05766800 -0.17647400
C 10.39465600 -0.83729200 -0.19694300
C 9.11027900 -0.47565200 -0.13878800
C 7.95626400 -1.23818200 -0.21808700
C 6.71926400 -0.66340200 -0.11955300
C 5.47028900 -1.19174500 -0.17572200
C 4.27338300 -0.58111700 -0.07466400
C 2.99621800 -1.10422200 -0.13015000
C 1.89234500 -0.29835400 -0.00271600
C 0.57260500 -0.57411300 -0.02335800
C 12.24535600 -0.07163700 2.11831700
C 12.78686500 -1.97724700 0.73216700
C 10.60208100 1.55314300 -1.75759700
C 8.10658900 -2.65668100 -0.41456800
C 2.85926700 -2.52369600 -0.32640500
O 15.16635500 2.04798300 -0.42447000
C -12.13713300 -0.17590300 -1.18914300
C -13.42792800 -0.92838100 -1.19297300
C -14.35753700 -0.54139700 -0.12274400
C -13.71204000 -0.29846600 1.13932300
C -12.41098200 -0.12418500 1.30376600
C -11.49140600 -0.28555100 0.17467300
C -10.30766900 0.52734300 0.27507400
C -9.03246400 0.16573200 0.20787600
C -7.87460200 0.92685000 0.29966800
C -6.63833000 0.35122400 0.20256800
C -5.39028000 0.87854800 0.25947600
C -4.19230500 0.26767000 0.15799900
C -2.91537300 0.79102800 0.21402700
C -1.81225800 -0.01382700 0.08684700
C -0.49141900 0.26276300 0.10777900
C -12.39511900 1.25078900 -1.50151900
C -11.23211900 -0.74440700 -2.21690200
C -11.80739200 0.19759100 2.56466400
C -8.02860100 2.34349600 0.50102600
C -2.77927200 2.21085900 0.41053300
O -15.43315200 -1.50526800 0.06119000
H 14.35444000 -0.39314300 -0.49170700
H 14.67206700 -0.05950800 1.15594400
H 13.70302900 2.08860000 0.98403500
H 13.30647900 1.82345900 -1.90771600
H 12.60256900 2.92977500 -0.79659200
H 10.57319500 -1.87606100 -0.33535400
H 8.94897600 0.56631600 0.00973600
H 6.72148900 0.39240800 0.02768700
H 5.42897900 -2.24532000 -0.32144600
H 4.32728100 0.47207100 0.07092200
H 2.10627300 0.73651600 0.13879300
H 0.31093400 -1.59640100 -0.16247400
H 11.30191900 -0.48774500 2.43250800
H 12.14603300 0.99746700 2.20587000
H 12.96758600 -0.37027500 2.85967100
H 13.65014800 -2.30002800 1.29268100
H 12.91178100 -2.36815400 -0.26320200
H 11.95404000 -2.50236200 1.16957700
H 9.93983900 2.20148200 -1.20491000
H 9.99227000 0.77349800 -2.18837400
H 10.94939400 2.13037200 -2.60214600
H 7.18954700 -3.22143800 -0.45538400
H 8.68474300 -3.10805500 0.37835800
H 8.61977400 -2.87515100 -1.33942800
H 1.84790600 -2.89417900 -0.36402900
H 3.33913600 -3.08070100 0.46494200
H 3.31520700 -2.84087900 -1.25283000
H 15.79447800 1.85401500 0.27067200
H -13.23721100 -1.99143400 -1.09553700
H -13.92284500 -0.83366600 -2.15127600
H -14.85032700 0.38994800 -0.39904800
H -14.38091400 -0.26227200 1.95861300
H -11.19713400 -1.33504100 0.29205300
H -10.52432600 1.55639200 0.41651300
H -8.87426000 -0.87728400 0.06060700
H -6.64205700 -0.70456200 0.05508500
H -5.34848500 1.93206400 0.40616400
H -4.24643100 -0.78526000 0.01152200
H -2.02491700 -1.04894300 -0.05486000
H -0.23045300 1.28506500 0.24704000
H -12.96884600 1.38074900 -2.40473900
H -11.49336500 1.82276100 -1.64680200
H -12.94572200 1.74555500 -0.71821000
H -10.26972100 -0.25845700 -2.23133300
H -11.63271900 -0.65577400 -3.21292200
H -11.03566400 -1.79234000 -2.06342300
H -12.46083600 0.07529200 3.41463600
H -11.48069200 1.22686600 2.58648000
H -10.93996800 -0.40999400 2.77292900
H -8.56367100 2.55712200 1.41480200
H -8.58904000 2.79880100 -0.30244800
H -7.11248400 2.90729700 0.56679500
H -1.76800900 2.58164400 0.44847300
H -3.23532100 2.52779400 1.33694400
H -3.25886500 2.76787600 -0.38091400
H -15.84681100 -1.57357400 -0.79921400
