98
Lutein source point 1; BLA = -0.0590729642 Angstrom
C 12.69003500 -0.52696300 0.68991000
C 13.95786300 0.14251800 0.27127200
C 13.84415200 1.57711200 0.00697400
C 12.75950900 1.89863600 -0.92606200
C 11.59247900 1.05131400 -0.88893200
C 11.53849500 -0.09814300 -0.14886000
C 10.41083700 -0.88672100 -0.10836900
C 9.09731800 -0.53830100 -0.07120200
C 7.96625800 -1.27706000 -0.13787500
C 6.69566700 -0.67266500 -0.04105300
C 5.49256200 -1.20708800 -0.10367200
C 4.24429900 -0.59435800 -0.00820800
C 3.01281000 -1.09008400 -0.06628600
C 1.86872100 -0.24297000 0.06113800
C 0.59930000 -0.53498500 0.03003200
C 12.37380800 -0.16159000 2.09699600
C 12.90706000 -1.99577000 0.61263200
C 10.49400000 1.49456400 -1.70056100
C 7.99827300 -2.70239200 -0.32355000
C 2.74116300 -2.49035200 -0.25846600
O 15.07489700 2.15022700 -0.51905100
C -12.09600300 -0.20443800 -1.23162000
C -13.36485500 -0.99278900 -1.25376300
C -14.32384800 -0.62661600 -0.20228800
C -13.70809000 -0.35884600 1.06956000
C -12.41570500 -0.14638600 1.25587500
C -11.47173700 -0.28816800 0.14432500
C -10.31522200 0.55755100 0.25927800
C -9.01731800 0.22230200 0.20330600
C -7.89744100 0.99944100 0.30658400
C -6.61857600 0.43674300 0.21821600
C -5.41409300 0.97490800 0.28546200
C -4.16772900 0.36514100 0.19071400
C -2.93317700 0.86297300 0.25195000
C -1.79141600 0.01810600 0.12496900
C -0.52051300 0.31076200 0.15699400
C -12.38762500 1.21293900 -1.55653000
C -11.15680900 -0.75277700 -2.23943800
C -11.84379700 0.20058400 2.52483200
C -8.05526000 2.41275400 0.50892100
C -2.66608600 2.26332700 0.44701800
O -15.37507300 -1.61947200 -0.03187700
H 14.34634000 -0.31964600 -0.63053900
H 14.73602600 -0.02014600 1.00793600
H 13.66918600 2.09334300 0.94632500
H 13.16889600 1.87593700 -1.93443300
H 12.46949600 2.93427600 -0.77561500
H 10.58665200 -1.93287500 -0.13754700
H 8.94288000 0.50850400 0.05744400
H 6.71947400 0.38156300 0.10454700
H 5.45127900 -2.26045000 -0.24797800
H 4.32440500 0.45868900 0.13678100
H 2.10717700 0.78444800 0.20304100
H 0.33301500 -1.55650800 -0.11091000
H 11.46755200 -0.62633300 2.45005200
H 12.23883300 0.89898600 2.22906200
H 13.14957200 -0.45594500 2.78401000
H 13.82640000 -2.29968700 1.08829000
H 12.96235600 -2.34911600 -0.40283900
H 12.13758100 -2.57099100 1.09981700
H 9.82264100 2.11928900 -1.13137700
H 9.90378100 0.69475600 -2.12158300
H 10.79792000 2.08801600 -2.55119700
H 7.50267900 -3.21968200 0.48493100
H 8.98061900 -3.14202400 -0.38525400
H 7.49697900 -2.99441000 -1.23484500
H 2.17545800 -2.90089100 0.56471500
H 3.60985100 -3.12190700 -0.35236600
H 2.16298400 -2.66236800 -1.15418800
H 15.73806700 1.96436100 0.14508400
H -13.14616800 -2.04954300 -1.14698200
H -13.84515900 -0.91691800 -2.22114700
H -14.83765900 0.28896700 -0.49264400
H -14.39210300 -0.33765800 1.87678800
H -11.14997700 -1.32819200 0.27348800
H -10.55330000 1.58085100 0.39990900
H -8.84382100 -0.81847900 0.05522400
H -6.62126900 -0.61911500 0.06950000
H -5.37120400 2.02671000 0.43331300
H -4.24378300 -0.68778900 0.04307100
H -2.02788100 -1.00976700 -0.01784300
H -0.25518200 1.33229200 0.29871000
H -12.94730600 1.32233600 -2.47121000
H -11.49953000 1.80924000 -1.68749700
H -12.96673700 1.69587900 -0.78651100
H -10.20861400 -0.23940200 -2.24014800
H -11.54204600 -0.68177200 -3.24290900
H -10.93309300 -1.79365200 -2.07559500
H -12.50631500 0.05906300 3.36474200
H -11.55331800 1.24064100 2.54698500
H -10.95927400 -0.37559400 2.74985200
H -8.59817600 2.62417000 1.41906400
H -8.61324500 2.86854500 -0.29653800
H -7.14226400 2.98057400 0.58172100
H -2.10068100 2.67745600 -0.37476300
H -2.08862200 2.43581600 1.34328300
H -3.53647800 2.89239000 0.54159900
H -15.77103100 -1.70410300 -0.89912600
