98
Lutein source point 10; BLA = 0.0359257567 Angstrom
C 12.62498100 -0.49664600 0.75279700
C 13.94235700 0.11002900 0.39456000
C 13.90088600 1.53858300 0.07748500
C 12.87770000 1.87769700 -0.91768700
C 11.67813900 1.07075300 -0.91834700
C 11.55760100 -0.05205500 -0.18074800
C 10.39520800 -0.83312000 -0.20472700
C 9.11957700 -0.46861500 -0.14476900
C 7.95482900 -1.23203300 -0.22410800
C 6.72831800 -0.65647900 -0.12588300
C 5.46834400 -1.18558300 -0.18105000
C 4.28226700 -0.57592700 -0.08037700
C 2.99247000 -1.09993900 -0.13478400
C 1.90028200 -0.29783000 -0.00832000
C 0.56791700 -0.57409800 -0.02797300
C 12.23120500 -0.06657700 2.12112800
C 12.78088500 -1.97442300 0.74118900
C 10.62440400 1.55213500 -1.77106100
C 8.10968600 -2.65017200 -0.41980900
C 2.86409400 -2.52038900 -0.32985300
O 15.17960800 2.04260700 -0.40314200
C -12.14677800 -0.17287500 -1.18574300
C -13.44182400 -0.91811500 -1.18610500
C -14.36548000 -0.52731600 -0.11210300
C -13.71417600 -0.28957300 1.14798600
C -12.41155400 -0.12323800 1.30811400
C -11.49698800 -0.28838900 0.17554000
C -10.30750900 0.51767700 0.27324500
C -9.03980500 0.15312100 0.20552900
C -7.87183600 0.91517800 0.29602600
C -6.64573000 0.33883500 0.19890600
C -5.38675400 0.86697200 0.25461400
C -4.19963500 0.25712600 0.15341800
C -2.91011900 0.78136500 0.20824100
C -1.81867500 -0.01981400 0.08200600
C -0.48522500 0.25725200 0.10192100
C -12.39806900 1.25564300 -1.49521300
C -11.24866700 -0.74487500 -2.21761200
C -11.80167600 0.19296900 2.56739100
C -8.02971700 2.33167200 0.49617100
C -2.78245900 2.20215000 0.40352900
O -15.44572500 -1.48549400 0.07447300
H 14.36674700 -0.39735500 -0.46563000
H 14.66598200 -0.05637000 1.18389800
H 13.70242600 2.09206600 0.99065700
H 13.33250700 1.81136000 -1.90383300
H 12.62226800 2.92672400 -0.80590900
H 10.57635400 -1.87034700 -0.35051100
H 8.95791500 0.57317800 0.00421700
H 6.72826900 0.39933800 0.02035300
H 5.43105300 -2.23940300 -0.32588600
H 4.33242300 0.47745900 0.06427100
H 2.10939800 0.73802700 0.13229000
H 0.31229200 -1.59800500 -0.16626800
H 11.28277400 -0.47851400 2.42566300
H 12.13573300 1.00298400 2.20744800
H 12.94447900 -0.36821700 2.86989800
H 13.63805800 -2.29918200 1.30987700
H 12.91399000 -2.36625200 -0.25276100
H 11.94254900 -2.49701000 1.17105900
H 9.96309700 2.20682900 -1.22484300
H 10.01217600 0.77373000 -2.20052500
H 10.97944600 2.12266100 -2.61685000
H 7.19395000 -3.21712500 -0.46107400
H 8.68835100 -3.09945600 0.37385800
H 8.62404800 -2.86744900 -1.34425300
H 1.85452300 -2.89595100 -0.36749400
H 3.34655700 -3.07372000 0.46239800
H 3.32202200 -2.83552000 -1.25591600
H 15.80054200 1.85135100 0.29917500
H -13.25675100 -1.98235000 -1.09074300
H -13.93952600 -0.81935100 -2.14255100
H -14.85411800 0.40705800 -0.38551000
H -14.38000500 -0.25023900 1.96960300
H -11.20851100 -1.33976500 0.29029900
H -10.52156300 1.54786100 0.41390100
H -8.88074000 -0.88977700 0.05927100
H -6.64715100 -0.71694900 0.05242700
H -5.34895100 1.92074300 0.40032900
H -4.25003200 -0.79602300 0.00792300
H -2.02657400 -1.05590100 -0.05877000
H -0.23027800 1.28117200 0.24034800
H -12.97469600 1.39001000 -2.39594100
H -11.49374800 1.82277800 -1.64344400
H -12.94275700 1.75242600 -0.70905000
H -10.28356100 -0.26442000 -2.23461300
H -11.65223000 -0.65230700 -3.21207500
H -11.05771000 -1.79417500 -2.06654700
H -12.45343800 0.07510600 3.41927700
H -11.46685500 1.21964000 2.58907300
H -10.93842200 -0.42159500 2.77247400
H -8.56502500 2.54470100 1.40988200
H -8.59104600 2.78485200 -0.30780700
H -7.11468500 2.89741100 0.56137200
H -1.77296200 2.57794500 0.44138700
H -3.24040500 2.51708400 1.32961000
H -3.26469500 2.75552300 -0.38877700
H -15.86286100 -1.55036800 -0.78451700
