98
Lutein source point 16; BLA = 0.0958308273 Angstrom
C 12.63014500 -0.48563100 0.76937800
C 13.95914900 0.11795000 0.44779700
C 13.92703300 1.54220600 0.10924800
C 12.93250500 1.86850500 -0.91928600
C 11.72848600 1.06299700 -0.93148600
C 11.59409900 -0.03347800 -0.19304200
C 10.40234600 -0.82309200 -0.22376600
C 9.15479100 -0.44975800 -0.15948800
C 7.95513900 -1.21941800 -0.23779200
C 6.76018700 -0.64124200 -0.14096400
C 5.46629300 -1.17471100 -0.19317800
C 4.31075500 -0.56603800 -0.09390200
C 2.98431700 -1.09395000 -0.14521700
C 1.92349100 -0.29960400 -0.02201500
C 0.55538800 -0.57791800 -0.03910200
C 12.20118600 -0.05675100 2.12736900
C 12.77918900 -1.96387400 0.75756500
C 10.69347000 1.54650200 -1.80915500
C 8.12579600 -2.63564300 -0.42928100
C 2.87827500 -2.51628900 -0.33582900
O 15.21911900 2.03951000 -0.34116600
C -12.18313600 -0.16225800 -1.17728500
C -13.49103500 -0.88494900 -1.16663300
C -14.39569000 -0.48288800 -0.08068000
C -13.72610300 -0.26158900 1.17297200
C -12.41908700 -0.12070500 1.31934200
C -11.52057700 -0.29705200 0.17568000
C -10.31330200 0.48732100 0.26482000
C -9.06991200 0.11427400 0.19676100
C -7.86862600 0.88289500 0.28418500
C -6.67330700 0.30399200 0.18797600
C -5.38044700 0.83660400 0.24055000
C -4.22413700 0.22784800 0.14092500
C -2.89778100 0.75599100 0.19254100
C -1.83779900 -0.03747000 0.06955600
C -0.46855900 0.24154800 0.08686900
C -12.41377000 1.27183200 -1.47692300
C -11.30697100 -0.74413100 -2.22241000
C -11.78918400 0.17668700 2.57339300
C -8.04044100 2.29789000 0.48004000
C -2.79252300 2.17867500 0.38317700
O -15.48966500 -1.42368000 0.11454700
H 14.41266500 -0.39973000 -0.39115600
H 14.65612500 -0.03744700 1.26276400
H 13.70194100 2.10795100 1.00863900
H 13.41056400 1.78062500 -1.89227600
H 12.67998600 2.92043500 -0.83374200
H 10.59268600 -1.85586400 -0.38459500
H 8.98934300 0.59106300 -0.01095900
H 6.75267500 0.41447800 0.00149100
H 5.44070000 -2.22892100 -0.33479100
H 4.35043600 0.48769800 0.04736200
H 2.12056600 0.73846900 0.11521900
H 0.31512300 -1.60560000 -0.17427100
H 11.24004600 -0.45993300 2.40248600
H 12.11458400 1.01348000 2.21502500
H 12.88920000 -0.36862300 2.89532900
H 13.62153500 -2.29373000 1.34517100
H 12.93339300 -2.35415500 -0.23395700
H 11.92875500 -2.48362100 1.16665300
H 10.03486900 2.21962400 -1.28258900
H 10.07487700 0.77069900 -2.23377100
H 11.06996000 2.09648800 -2.65898100
H 7.21474500 -3.21050700 -0.47077900
H 8.70694900 -3.07685200 0.36693400
H 8.64373200 -2.84989300 -1.35234200
H 1.87333600 -2.90482600 -0.37307500
H 3.36728300 -3.05966100 0.45909200
H 3.34115900 -2.82723000 -1.26066900
H 15.81939000 1.85825400 0.38149000
H -13.32350700 -1.95265500 -1.07797500
H -13.99741900 -0.77324700 -2.11706800
H -14.87169400 0.46056200 -0.34483800
H -14.38218800 -0.21203200 2.00183100
H -11.25044100 -1.35413200 0.28180200
H -10.51941400 1.52119200 0.40185400
H -8.90541000 -0.92768300 0.05437300
H -6.66707700 -0.75165700 0.04515200
H -5.35431600 1.89081200 0.38263400
H -4.26392200 -0.82571600 -0.00100600
H -2.03372400 -1.07574600 -0.06779900
H -0.22895000 1.26925500 0.22215000
H -12.99982500 1.42044600 -2.36929900
H -11.50186800 1.82401900 -1.63477300
H -12.93939900 1.77417300 -0.68137000
H -10.33376200 -0.28070400 -2.24754400
H -11.71988800 -0.63871100 -3.21173700
H -11.13305700 -1.79751500 -2.07939700
H -12.43595800 0.07538000 3.43118500
H -11.42561400 1.19357400 2.59395100
H -10.94169400 -0.46235500 2.76908700
H -8.57755300 2.50872800 1.39307100
H -8.60454800 2.74375900 -0.32592800
H -7.12946400 2.87070400 0.54405300
H -1.78769000 2.56752300 0.42056300
H -3.25546600 2.48950100 1.30799100
H -3.28139600 2.72192500 -0.41186500
H -15.91749100 -1.47807300 -0.73989400
