98
Lutein source point 15; BLA = 0.085829855 Angstrom
C 12.62798800 -0.48746600 0.76706000
C 13.95534000 0.11634700 0.43974300
C 13.92196900 1.54128800 0.10435200
C 12.92302600 1.86965900 -0.91914000
C 11.71963500 1.06408800 -0.92963300
C 11.58708600 -0.03666900 -0.19115300
C 10.40047200 -0.82462300 -0.22106100
C 9.14821700 -0.45283800 -0.15740900
C 7.95457400 -1.22117600 -0.23603500
C 6.75438900 -0.64351200 -0.13885500
C 5.46627000 -1.17605100 -0.19159200
C 4.30576900 -0.56738800 -0.09197100
C 2.98544900 -1.09450700 -0.14382700
C 1.91962000 -0.29912300 -0.01995300
C 0.55742600 -0.57698000 -0.03744600
C 12.20439500 -0.05803500 2.12656100
C 12.77792300 -1.96565500 0.75568800
C 10.68175300 1.54724500 -1.80355500
C 8.12242900 -2.63775700 -0.42848400
C 2.87580000 -2.51658900 -0.33541000
O 15.21213000 2.03939900 -0.35077200
C -12.17612600 -0.16426000 -1.17851700
C -13.48190300 -0.89075600 -1.16980800
C -14.38987800 -0.49046900 -0.08595000
C -13.72346200 -0.26634900 1.16886100
C -12.41713600 -0.12108700 1.31764800
C -11.51582300 -0.29564100 0.17594600
C -10.31155000 0.49246200 0.26658700
C -9.06405500 0.12089800 0.19838300
C -7.86854200 0.88817100 0.28627000
C -6.66810800 0.30980100 0.18977500
C -5.38101100 0.84148900 0.24288500
C -4.21969200 0.23273800 0.14294500
C -2.89950300 0.76009000 0.19513600
C -1.83448900 -0.03442400 0.07155900
C -0.47117500 0.24414700 0.08930300
C -12.41019800 1.26889300 -1.47997200
C -11.29612500 -0.74461400 -2.22126100
C -11.79071300 0.17967600 2.57262400
C -8.03789900 2.30346700 0.48301400
C -2.79061400 2.18251900 0.38671400
O -15.48168900 -1.43407700 0.10771500
H 14.40433100 -0.39992700 -0.40250100
H 14.65644800 -0.04081000 1.25085200
H 13.70105700 2.10528500 1.00587300
H 13.39757700 1.78504400 -1.89419800
H 12.67008500 2.92119800 -0.82956800
H 10.58926600 -1.85807300 -0.38013600
H 8.98360900 0.58818500 -0.00861100
H 6.74817300 0.41222400 0.00441600
H 5.43872400 -2.23021200 -0.33390400
H 4.34719400 0.48630000 0.05002100
H 2.11860200 0.73861200 0.11800700
H 0.31471400 -1.60408300 -0.17329300
H 11.24512000 -0.46246100 2.40629700
H 12.11647200 1.01212600 2.21369100
H 12.89629200 -0.36816400 2.89173400
H 13.62252000 -2.29466200 1.34053000
H 12.92888600 -2.35645100 -0.23612800
H 11.92923200 -2.48562800 1.16809300
H 10.02267300 2.21758400 -1.27401900
H 10.06414200 0.77101000 -2.22888300
H 11.05500400 2.10035500 -2.65282600
H 7.21052100 -3.21115300 -0.47042500
H 8.70280800 -3.08053400 0.36744700
H 8.64008700 -2.85242500 -1.35161700
H 1.87011000 -2.90304500 -0.37277600
H 3.36378100 -3.06168100 0.45899100
H 3.33788200 -2.82802200 -1.26050700
H 15.81560500 1.85647900 0.36878600
H -13.31142800 -1.95789700 -1.07993200
H -13.98676400 -0.78131100 -2.12131900
H -14.86791400 0.45150500 -0.35175200
H -14.38125900 -0.21857500 1.99647000
H -11.24255300 -1.35176900 0.28363500
H -10.51906400 1.52567300 0.40446900
H -8.90062700 -0.92125100 0.05518000
H -6.66319000 -0.74587900 0.04622400
H -5.35295000 1.89564200 0.38571900
H -4.26123600 -0.82077700 0.00030800
H -2.03231400 -1.07236700 -0.06650800
H -0.22911800 1.27127500 0.22524000
H -12.99454700 1.41500800 -2.37387500
H -11.49951800 1.82358500 -1.63610300
H -12.93918300 1.77040700 -0.68612400
H -10.32423600 -0.27834500 -2.24491100
H -11.70734800 -0.64142800 -3.21152900
H -11.11937700 -1.79732900 -2.07679700
H -12.43835000 0.07531500 3.42940100
H -11.43234900 1.19840100 2.59344200
H -10.94026500 -0.45494600 2.76989600
H -8.57459800 2.51460700 1.39623400
H -8.60159600 2.75067400 -0.32251900
H -7.12619900 2.87503500 0.54718800
H -1.78502200 2.56926800 0.42423700
H -3.25276800 2.49387300 1.31176700
H -3.27842600 2.72749100 -0.40782800
H -15.90769100 -1.49018400 -0.74752800
