98
Lutein source point 12; BLA = 0.0559242852 Angstrom
C 12.62472700 -0.49296700 0.75892600
C 13.94654100 0.11170200 0.41293800
C 13.90901400 1.53878100 0.08817400
C 12.89564500 1.87396800 -0.91851300
C 11.69429800 1.06799300 -0.92328400
C 11.56833000 -0.04599200 -0.18520300
C 10.39655400 -0.82945000 -0.21199200
C 9.13018200 -0.46213000 -0.15024600
C 7.95413300 -1.22715200 -0.22941400
C 6.73818800 -0.65082600 -0.13143000
C 5.46707200 -1.18106700 -0.18560500
C 4.29142700 -0.57204100 -0.08519700
C 2.98933900 -1.09713100 -0.13858200
C 1.90806000 -0.29808000 -0.01303600
C 0.56359300 -0.57489000 -0.03181100
C 12.21883500 -0.06204500 2.12341100
C 12.77749000 -1.97098600 0.74848700
C 10.64708800 1.55040100 -1.78461600
C 8.11399300 -2.64472300 -0.42413700
C 2.86873400 -2.51831600 -0.33252000
O 15.19268300 2.03961400 -0.38236600
C -12.15744000 -0.16960300 -1.18279100
C -13.45680300 -0.90739000 -1.17976900
C -14.37443500 -0.51275800 -0.10201800
C -13.71733500 -0.28039800 1.15610800
C -12.41319900 -0.12233200 1.31196400
C -11.50367800 -0.29130100 0.17592600
C -10.30830400 0.50767500 0.27100900
C -9.04857400 0.14032200 0.20301200
C -7.86985600 0.90407800 0.29248700
C -6.65403700 0.32699700 0.19551300
C -5.38393000 0.85632300 0.25021800
C -4.20732400 0.24715800 0.14941700
C -2.90548200 0.77247500 0.20320800
C -1.82495600 -0.02568700 0.07789300
C -0.47940200 0.25188500 0.09691700
C -12.40180700 1.26077800 -1.48920900
C -11.26632200 -0.74505300 -2.21879600
C -11.79698700 0.18791200 2.56965300
C -8.03211400 2.32019000 0.49144300
C -2.78558200 2.19400000 0.39725700
O -15.45937300 -1.46512600 0.08714600
H 14.38057700 -0.39971700 -0.44002600
H 14.66110000 -0.05122200 1.21115200
H 13.70180500 2.09679500 0.99664000
H 13.35846100 1.80014100 -1.90026000
H 12.64147900 2.92412400 -0.81564900
H 10.58073100 -1.86508500 -0.36413000
H 8.96761100 0.57938700 -0.00100000
H 6.73574400 0.40496300 0.01380000
H 5.43369800 -2.23504600 -0.32962100
H 4.33804500 0.48148100 0.05855200
H 2.11291700 0.73858900 0.12668000
H 0.31337300 -1.60016700 -0.16929700
H 11.26575500 -0.47041900 2.41811500
H 12.12676500 1.00786000 2.20924300
H 12.92331500 -0.36682000 2.87920100
H 13.62903500 -2.29751400 1.32456900
H 12.91836400 -2.36310100 -0.24428400
H 11.93433000 -2.49180900 1.17102000
H 9.98664600 2.21139400 -1.24504000
H 10.03264700 0.77298000 -2.21256400
H 11.00963200 2.11403900 -2.63173900
H 7.19973400 -3.21418100 -0.46546400
H 8.69359000 -3.09162000 0.37013900
H 8.62933700 -2.86078400 -1.34828700
H 1.86077500 -2.89841800 -0.37011900
H 3.35352300 -3.06836500 0.46051700
H 3.32838700 -2.83167500 -1.25826100
H 15.80655700 1.85153800 0.32698700
H -13.27755700 -1.97280800 -1.08654100
H -13.95721300 -0.80440800 -2.13435100
H -14.85879000 0.42468100 -0.37249600
H -14.38012400 -0.23779700 1.98001300
H -11.22123600 -1.34458900 0.28797100
H -10.51978900 1.53903200 0.41076300
H -8.88802700 -0.90232500 0.05779700
H -6.65298600 -0.72875200 0.05003900
H -5.35005600 1.91027300 0.39495000
H -4.25413700 -0.80615200 0.00488600
H -2.02863000 -1.06257300 -0.06197000
H -0.22983900 1.27717700 0.23452000
H -12.98133300 1.39975700 -2.38737400
H -11.49487900 1.82294300 -1.64040300
H -12.94042800 1.75954100 -0.70012400
H -10.29848400 -0.27023000 -2.23830300
H -11.67278200 -0.64836400 -3.21168400
H -11.08102400 -1.79572500 -2.07024400
H -12.44713900 0.07482600 3.42341300
H -11.45348100 1.21171900 2.59121600
H -10.93834400 -0.43410000 2.77159200
H -8.56789400 2.53243800 1.40500900
H -8.59436000 2.77114100 -0.31309100
H -7.11833500 2.88812800 0.55624800
H -1.77770300 2.57435100 0.43503300
H -3.24526300 2.50723200 1.32299100
H -3.27017500 2.74402800 -0.39586500
H -15.87991200 -1.52649600 -0.77043900
