98
Lutein source point 14; BLA = 0.0759093457 Angstrom
C 12.62630400 -0.48920300 0.76460100
C 13.95200700 0.11462600 0.43122600
C 13.91748300 1.54021200 0.09913400
C 12.91401800 1.87080700 -0.91910900
C 11.71122200 1.06522900 -0.92786000
C 11.58056400 -0.03980600 -0.18941300
C 10.39894900 -0.82619300 -0.21851900
C 9.14200200 -0.45594100 -0.15536100
C 7.95426400 -1.22307000 -0.23418500
C 6.74886800 -0.64586200 -0.13669200
C 5.46643100 -1.17756500 -0.18981600
C 4.30095600 -0.56884500 -0.08989700
C 2.98668400 -1.09523600 -0.14217100
C 1.91581000 -0.29872800 -0.01773500
C 0.55948400 -0.57621200 -0.03559600
C 12.20827500 -0.05876500 2.12553100
C 12.77694000 -1.96737300 0.75406000
C 10.67041200 1.54820500 -1.79778400
C 8.11941700 -2.64000700 -0.42741500
C 2.87347700 -2.51706400 -0.33449800
O 15.20570200 2.03896500 -0.36088600
C -12.16967400 -0.16590300 -1.17992600
C -13.47327100 -0.89626800 -1.17317200
C -14.38447100 -0.49810700 -0.09126400
C -13.72115000 -0.27128400 1.16464800
C -12.41553300 -0.12161800 1.31578000
C -11.51148500 -0.29418600 0.17592200
C -10.31015200 0.49753400 0.26811300
C -9.05858800 0.12737400 0.20004000
C -7.86872100 0.89336600 0.28848700
C -6.66319300 0.31543800 0.19187100
C -5.38176900 0.84627300 0.24550200
C -4.21543000 0.23746000 0.14523800
C -2.90133400 0.76408000 0.19790700
C -1.83124800 -0.03155100 0.07369800
C -0.47381900 0.24666100 0.09180400
C -12.40728800 1.26636000 -1.48283900
C -11.28596200 -0.74444200 -2.22053300
C -11.79252000 0.18231500 2.57167300
C -8.03567800 2.30898000 0.48592300
C -2.78885700 2.18624200 0.39032100
O -15.47383700 -1.44484100 0.10083900
H 14.39615200 -0.40023900 -0.41443800
H 14.65742000 -0.04440200 1.23825200
H 13.70092000 2.10237800 1.00285200
H 13.38489800 1.78952600 -1.89628900
H 12.66077000 2.92194700 -0.82536900
H 10.58628000 -1.86031900 -0.37567200
H 8.97814900 0.58525700 -0.00632600
H 6.74394000 0.40990700 0.00721000
H 5.43694000 -2.23168400 -0.33266500
H 4.34410400 0.48480500 0.05263900
H 2.11668900 0.73868200 0.12077300
H 0.31433100 -1.60274100 -0.17196200
H 11.25088200 -0.46425200 2.41011600
H 12.11912700 1.01135700 2.21183900
H 12.90410700 -0.36697500 2.88791000
H 13.62345300 -2.29553100 1.33660200
H 12.92508500 -2.35892200 -0.23788100
H 11.92972600 -2.48736300 1.16946600
H 10.01087700 2.21555800 -1.26503000
H 10.05381400 0.77160200 -2.22397200
H 11.04028800 2.10470300 -2.64636000
H 7.20672000 -3.21210100 -0.46886500
H 8.69978300 -3.08416600 0.36778300
H 8.63602300 -2.85511900 -1.35105100
H 1.86705300 -2.90147300 -0.37189600
H 3.36046200 -3.06374500 0.45945500
H 3.33473800 -2.82912500 -1.25982200
H 15.81242600 1.85446500 0.35552900
H -13.29977900 -1.96284300 -1.08235900
H -13.97670000 -0.78887600 -2.12567400
H -14.86477000 0.44232900 -0.35848500
H -14.38060100 -0.22537100 1.99104500
H -11.23515000 -1.34939500 0.28491300
H -10.51900500 1.53012900 0.40662100
H -8.89617900 -0.91495800 0.05617700
H -6.65957500 -0.74027400 0.04766500
H -5.35178100 1.90037500 0.38895400
H -4.25872200 -0.81599600 0.00195400
H -2.03096700 -1.06916900 -0.06495600
H -0.22931600 1.27320900 0.22828400
H -12.99008700 1.41017500 -2.37812500
H -11.49788600 1.82361400 -1.63728700
H -12.93947500 1.76683900 -0.69048100
H -10.31545000 -0.27524000 -2.24279300
H -11.69566100 -0.64334600 -3.21164800
H -11.10627400 -1.79648800 -2.07484000
H -12.44092600 0.07472200 3.42746700
H -11.43941900 1.20286700 2.59286000
H -10.93910600 -0.44787400 2.77036700
H -8.57212700 2.52054300 1.39921400
H -8.59880100 2.75743700 -0.31934200
H -7.12326600 2.87929800 0.55036800
H -1.78252400 2.57092100 0.42790300
H -3.25017900 2.49817900 1.31562200
H -3.27565900 2.73287000 -0.40373500
H -15.89806900 -1.50265900 -0.75517100
