98
Lutein source point 13; BLA = 0.0659194806 Angstrom
C 12.62523100 -0.49104600 0.76186800
C 13.94905000 0.11326100 0.42241800
C 13.91300700 1.53955800 0.09381900
C 12.90479300 1.87227400 -0.91893300
C 11.70269700 1.06651200 -0.92575400
C 11.57428800 -0.04295200 -0.18741900
C 10.39763300 -0.82782900 -0.21539900
C 9.13597100 -0.45905300 -0.15289500
C 7.95411700 -1.22507000 -0.23186100
C 6.74345800 -0.64830800 -0.13413600
C 5.46670600 -1.17924100 -0.18776300
C 4.29617400 -0.57039700 -0.08761400
C 2.98798800 -1.09611200 -0.14043200
C 1.91196200 -0.29838500 -0.01545100
C 0.56155300 -0.57551800 -0.03376200
C 12.21298500 -0.06036500 2.12449600
C 12.77697700 -1.96913700 0.75144200
C 10.65875400 1.54915200 -1.79152700
C 8.11658400 -2.64234600 -0.42577300
C 2.87111000 -2.51764000 -0.33354600
O 15.19904000 2.03937000 -0.37122600
C -12.16344800 -0.16768000 -1.18131700
C -13.46493300 -0.90176400 -1.17642100
C -14.37930700 -0.50543400 -0.09651600
C -13.71903600 -0.27593900 1.16049200
C -12.41414000 -0.12207000 1.31393600
C -11.50740200 -0.29274900 0.17593300
C -10.30903900 0.50260600 0.26957500
C -9.05338200 0.13385000 0.20150200
C -7.86913100 0.89866300 0.29044900
C -6.65846600 0.32117500 0.19361500
C -5.38272400 0.85121900 0.24777400
C -4.21128000 0.24226700 0.14724000
C -2.90330800 0.76820800 0.20047100
C -1.82805200 -0.02863900 0.07572300
C -0.47655000 0.24923500 0.09428800
C -12.40445900 1.26366400 -1.48587900
C -11.27607400 -0.74461000 -2.21970200
C -11.79447400 0.18494800 2.57071700
C -8.03370100 2.31454000 0.48867500
C -2.78714300 2.19006700 0.39371100
O -15.46647700 -1.45497800 0.09409400
H 14.38839400 -0.39994100 -0.42675300
H 14.65887500 -0.04758300 1.22523500
H 13.70086300 2.09974000 0.99981300
H 13.37183500 1.79449000 -1.89830400
H 12.65110400 2.92296100 -0.82090200
H 10.58338700 -1.86269300 -0.37021500
H 8.97280900 0.58232200 -0.00376300
H 6.73978600 0.40748100 0.01039200
H 5.43527800 -2.23329900 -0.33118300
H 4.34105400 0.48319700 0.05551400
H 2.11479800 0.73866900 0.12365300
H 0.31390500 -1.60143900 -0.17068600
H 11.25766200 -0.46727500 2.41393700
H 12.12238700 1.00965300 2.21054000
H 12.91297700 -0.36688000 2.88374400
H 13.62592400 -2.29644100 1.33091000
H 12.92166200 -2.36099000 -0.24088700
H 11.93172400 -2.48955300 1.17028600
H 9.99877300 2.21345000 -1.25548700
H 10.04319400 0.77212100 -2.21850500
H 11.02505500 2.10906400 -2.63945500
H 7.20309900 -3.21313200 -0.46688300
H 8.69677400 -3.08783100 0.36883600
H 8.63232700 -2.85796900 -1.34978700
H 1.86392200 -2.89991300 -0.37103600
H 3.35701200 -3.06598000 0.45995800
H 3.33156900 -2.83034800 -1.25907700
H 15.80919800 1.85317200 0.34182200
H -13.28855500 -1.96777100 -1.08448200
H -13.96690100 -0.79651900 -2.12993600
H -14.86162800 0.43353900 -0.36527400
H -14.38011900 -0.23175900 1.98568000
H -11.22799800 -1.34701100 0.28635800
H -10.51920900 1.53457800 0.40874600
H -8.89194400 -0.90864800 0.05693400
H -6.65614200 -0.73455800 0.04876000
H -5.35080200 1.90525000 0.39188600
H -4.25632700 -0.81112300 0.00332900
H -2.02971900 -1.06590400 -0.06353600
H -0.22955300 1.27517300 0.23132700
H -12.98565800 1.40511500 -2.38257900
H -11.49629700 1.82338800 -1.63869100
H -12.93984300 1.76323600 -0.69510400
H -10.30689500 -0.27259600 -2.24059000
H -11.68420100 -0.64565100 -3.21168100
H -11.09357300 -1.79598400 -2.07266200
H -12.44377500 0.07472600 3.42549800
H -11.44599700 1.20708000 2.59210000
H -10.93853700 -0.44130200 2.77102100
H -8.56978900 2.52644000 1.40212000
H -8.59639600 2.76426900 -0.31620400
H -7.12059200 2.88364800 0.55328700
H -1.78003900 2.57259500 0.43140400
H -3.24766100 2.50263800 1.31922500
H -3.27284000 2.73838800 -0.39988500
H -15.88891600 -1.51449500 -0.76268800
